ODB Name,Step,Frame,Part Instance Name, Element Label,X,Y,Z,Section Name,Material Name,Section Point,       S-Mises
C:/Users/srbb21/AppData/Local/Temp/rx18_gr30001521653382.841.odb,RELAX,Increment    105: Step Time =    1.000,SHELL-1,1,-13.1525,-8.75,12.2861,ASSEMBLY_SHELL-1_ALLEL,TI,"shell < TI > < 5 section points > : SPOS, (fraction = 1.0)",12.8883
C:/Users/srbb21/AppData/Local/Temp/rx18_gr30001521653382.841.odb,RELAX,Increment    105: Step Time =    1.000,SHELL-1,1,-13.1525,-8.75,12.2861,ASSEMBLY_SHELL-1_ALLEL,TI,"shell < TI > < 5 section points > : SNEG, (fraction = -1.0)",7.38582
C:/Users/srbb21/AppData/Local/Temp/rx18_gr30001521653382.841.odb,RELAX,Increment    105: Step Time =    1.000,SHELL-1,2,-13.1525,-8.25,12.2861,ASSEMBLY_SHELL-1_ALLEL,TI,"shell < TI > < 5 section points > : SPOS, (fraction = 1.0)",22.4207
C:/Users/srbb21/AppData/Local/Temp/rx18_gr30001521653382.841.odb,RELAX,Increment    105: Step Time =    1.000,SHELL-1,2,-13.1525,-8.25,12.2861,ASSEMBLY_SHELL-1_ALLEL,TI,"shell < TI > < 5 section points > : SNEG, (fraction = -1.0)",22.0362
C:/Users/srbb21/AppData/Local/Temp/rx18_gr30001521653382.841.odb,RELAX,Increment    105: Step Time =    1.000,SHELL-1,3,-13.1525,-7.75,12.2861,ASSEMBLY_SHELL-1_ALLEL,TI,"shell < TI > < 5 section points > : SPOS, (fraction = 1.0)",27.8248
C:/Users/srbb21/AppData/Local/Temp/rx18_gr30001521653382.841.odb,RELAX,Increment    105: Step Time =    1.000,SHELL-1,3,-13.1525,-7.75,12.2861,ASSEMBLY_SHELL-1_ALLEL,TI,"shell < TI > < 5 section points > : SNEG, (fraction = -1.0)",43.0435
C:/Users/srbb21/AppData/Local/Temp/rx18_gr30001521653382.841.odb,RELAX,Increment    105: Step Time =    1.000,SHELL-1,4,-13.1525,-7.25,12.2861,ASSEMBLY_SHELL-1_ALLEL,TI,"shell < TI > < 5 section points > : SPOS, (fraction = 1.0)",29.9279
C:/Users/srbb21/AppData/Local/Temp/rx18_gr30001521653382.841.odb,RELAX,Increment    105: Step Time =    1.000,SHELL-1,4,-13.1525,-7.25,12.2861,ASSEMBLY_SHELL-1_ALLEL,TI,"shell < TI > < 5 section points > : SNEG, (fraction = -1.0)",63.0508
C:/Users/srbb21/AppData/Local/Temp/rx18_gr30001521653382.841.odb,RELAX,Increment    105: Step Time =    1.000,SHELL-1,5,-13.1525,-6.75,12.2861,ASSEMBLY_SHELL-1_ALLEL,TI,"shell < TI > < 5 section points > : SNEG, (fraction = -1.0)",79.6706
C:/Users/srbb21/AppData/Local/Temp/rx18_gr30001521653382.841.odb,RELAX,Increment    105: Step Time =    1.000,SHELL-1,5,-13.1525,-6.75,12.2861,ASSEMBLY_SHELL-1_ALLEL,TI,"shell < TI > < 5 section points > : SPOS, (fraction = 1.0)",30.1366
C:/Users/srbb21/AppData/Local/Temp/rx18_gr30001521653382.841.odb,RELAX,Increment    105: Step Time =    1.000,SHELL-1,6,-13.1525,-6.25,12.2861,ASSEMBLY_SHELL-1_ALLEL,TI,"shell < TI > < 5 section points > : SPOS, (fraction = 1.0)",29.1693
C:/Users/srbb21/AppData/Local/Temp/rx18_gr30001521653382.841.odb,RELAX,Increment    105: Step Time =    1.000,SHELL-1,6,-13.1525,-6.25,12.2861,ASSEMBLY_SHELL-1_ALLEL,TI,"shell < TI > < 5 section points > : SNEG, (fraction = -1.0)",92.438
C:/Users/srbb21/AppData/Local/Temp/rx18_gr30001521653382.841.odb,RELAX,Increment    105: Step Time =    1.000,SHELL-1,7,-13.1525,-5.75,12.2861,ASSEMBLY_SHELL-1_ALLEL,TI,"shell < TI > < 5 section points > : SPOS, (fraction = 1.0)",27.516
C:/Users/srbb21/AppData/Local/Temp/rx18_gr30001521653382.841.odb,RELAX,Increment    105: Step Time =    1.000,SHELL-1,7,-13.1525,-5.75,12.2861,ASSEMBLY_SHELL-1_ALLEL,TI,"shell < TI > < 5 section points > : SNEG, (fraction = -1.0)",101.792
C:/Users/srbb21/AppData/Local/Temp/rx18_gr30001521653382.841.odb,RELAX,Increment    105: Step Time =    1.000,SHELL-1,8,-13.1525,-5.25,12.2861,ASSEMBLY_SHELL-1_ALLEL,TI,"shell < TI > < 5 section points > : SPOS, (fraction = 1.0)",25.4482
C:/Users/srbb21/AppData/Local/Temp/rx18_gr30001521653382.841.odb,RELAX,Increment    105: Step Time =    1.000,SHELL-1,8,-13.1525,-5.25,12.2861,ASSEMBLY_SHELL-1_ALLEL,TI,"shell < TI > < 5 section points > : SNEG, (fraction = -1.0)",108.347
C:/Users/srbb21/AppData/Local/Temp/rx18_gr30001521653382.841.odb,RELAX,Increment    105: Step Time =    1.000,SHELL-1,9,-13.1525,-4.75,12.2861,ASSEMBLY_SHELL-1_ALLEL,TI,"shell < TI > < 5 section points > : SNEG, (fraction = -1.0)",112.754
C:/Users/srbb21/AppData/Local/Temp/rx18_gr30001521653382.841.odb,RELAX,Increment    105: Step Time =    1.000,SHELL-1,9,-13.1525,-4.75,12.2861,ASSEMBLY_SHELL-1_ALLEL,TI,"shell < TI > < 5 section points > : SPOS, (fraction = 1.0)",23.1435
C:/Users/srbb21/AppData/Local/Temp/rx18_gr30001521653382.841.odb,RELAX,Increment    105: Step Time =    1.000,SHELL-1,10,-13.1525,-4.25,12.2861,ASSEMBLY_SHELL-1_ALLEL,TI,"shell < TI > < 5 section points > : SPOS, (fraction = 1.0)",20.7124
C:/Users/srbb21/AppData/Local/Temp/rx18_gr30001521653382.841.odb,RELAX,Increment    105: Step Time =    1.000,SHELL-1,10,-13.1525,-4.25,12.2861,ASSEMBLY_SHELL-1_ALLEL,TI,"shell < TI > < 5 section points > : SNEG, (fraction = -1.0)",115.554
C:/Users/srbb21/AppData/Local/Temp/rx18_gr30001521653382.841.odb,RELAX,Increment    105: Step Time =    1.000,SHELL-1,11,-13.1525,-3.75,12.2861,ASSEMBLY_SHELL-1_ALLEL,TI,"shell < TI > < 5 section points > : SPOS, (fraction = 1.0)",18.227
C:/Users/srbb21/AppData/Local/Temp/rx18_gr30001521653382.841.odb,RELAX,Increment    105: Step Time =    1.000,SHELL-1,11,-13.1525,-3.75,12.2861,ASSEMBLY_SHELL-1_ALLEL,TI,"shell < TI > < 5 section points > : SNEG, (fraction = -1.0)",117.204
C:/Users/srbb21/AppData/Local/Temp/rx18_gr30001521653382.841.odb,RELAX,Increment    105: Step Time =    1.000,SHELL-1,12,-13.1525,-3.25,12.2861,ASSEMBLY_SHELL-1_ALLEL,TI,"shell < TI > < 5 section points > : SPOS, (fraction = 1.0)",15.7353
C:/Users/srbb21/AppData/Local/Temp/rx18_gr30001521653382.841.odb,RELAX,Increment    105: Step Time =    1.000,SHELL-1,12,-13.1525,-3.25,12.2861,ASSEMBLY_SHELL-1_ALLEL,TI,"shell < TI > < 5 section points > : SNEG, (fraction = -1.0)",118.05
C:/Users/srbb21/AppData/Local/Temp/rx18_gr30001521653382.841.odb,RELAX,Increment    105: Step Time =    1.000,SHELL-1,13,-13.1525,-2.75,12.2861,ASSEMBLY_SHELL-1_ALLEL,TI,"shell < TI > < 5 section points > : SNEG, (fraction = -1.0)",118.371
C:/Users/srbb21/AppData/Local/Temp/rx18_gr30001521653382.841.odb,RELAX,Increment    105: Step Time =    1.000,SHELL-1,13,-13.1525,-2.75,12.2861,ASSEMBLY_SHELL-1_ALLEL,TI,"shell < TI > < 5 section points > : SPOS, (fraction = 1.0)",13.2677
C:/Users/srbb21/AppData/Local/Temp/rx18_gr30001521653382.841.odb,RELAX,Increment    105: Step Time =    1.000,SHELL-1,14,-13.1525,-2.25,12.2861,ASSEMBLY_SHELL-1_ALLEL,TI,"shell < TI > < 5 section points > : SPOS, (fraction = 1.0)",10.8459
C:/Users/srbb21/AppData/Local/Temp/rx18_gr30001521653382.841.odb,RELAX,Increment    105: Step Time =    1.000,SHELL-1,14,-13.1525,-2.25,12.2861,ASSEMBLY_SHELL-1_ALLEL,TI,"shell < TI > < 5 section points > : SNEG, (fraction = -1.0)",118.37
C:/Users/srbb21/AppData/Local/Temp/rx18_gr30001521653382.841.odb,RELAX,Increment    105: Step Time =    1.000,SHELL-1,15,-13.1525,-1.75,12.2861,ASSEMBLY_SHELL-1_ALLEL,TI,"shell < TI > < 5 section points > : SPOS, (fraction = 1.0)",8.48521
C:/Users/srbb21/AppData/Local/Temp/rx18_gr30001521653382.841.odb,RELAX,Increment    105: Step Time =    1.000,SHELL-1,15,-13.1525,-1.75,12.2861,ASSEMBLY_SHELL-1_ALLEL,TI,"shell < TI > < 5 section points > : SNEG, (fraction = -1.0)",118.208
C:/Users/srbb21/AppData/Local/Temp/rx18_gr30001521653382.841.odb,RELAX,Increment    105: Step Time =    1.000,SHELL-1,16,-13.1525,-1.25,12.2861,ASSEMBLY_SHELL-1_ALLEL,TI,"shell < TI > < 5 section points > : SPOS, (fraction = 1.0)",6.20881
C:/Users/srbb21/AppData/Local/Temp/rx18_gr30001521653382.841.odb,RELAX,Increment    105: Step Time =    1.000,SHELL-1,16,-13.1525,-1.25,12.2861,ASSEMBLY_SHELL-1_ALLEL,TI,"shell < TI > < 5 section points > : SNEG, (fraction = -1.0)",117.994
C:/Users/srbb21/AppData/Local/Temp/rx18_gr30001521653382.841.odb,RELAX,Increment    105: Step Time =    1.000,SHELL-1,17,-13.1525,-0.75,12.2861,ASSEMBLY_SHELL-1_ALLEL,TI,"shell < TI > < 5 section points > : SNEG, (fraction = -1.0)",117.81
C:/Users/srbb21/AppData/Local/Temp/rx18_gr30001521653382.841.odb,RELAX,Increment    105: Step Time =    1.000,SHELL-1,17,-13.1525,-0.75,12.2861,ASSEMBLY_SHELL-1_ALLEL,TI,"shell < TI > < 5 section points > : SPOS, (fraction = 1.0)",4.08189
C:/Users/srbb21/AppData/Local/Temp/rx18_gr30001521653382.841.odb,RELAX,Increment    105: Step Time =    1.000,SHELL-1,18,-13.1525,-0.25,12.2861,ASSEMBLY_SHELL-1_ALLEL,TI,"shell < TI > < 5 section points > : SPOS, (fraction = 1.0)",2.41946
C:/Users/srbb21/AppData/Local/Temp/rx18_gr30001521653382.841.odb,RELAX,Increment    105: Step Time =    1.000,SHELL-1,18,-13.1525,-0.25,12.2861,ASSEMBLY_SHELL-1_ALLEL,TI,"shell < TI > < 5 section points > : SNEG, (fraction = -1.0)",117.706
C:/Users/srbb21/AppData/Local/Temp/rx18_gr30001521653382.841.odb,RELAX,Increment    105: Step Time =    1.000,SHELL-1,19,-13.1525,0.25,12.2861,ASSEMBLY_SHELL-1_ALLEL,TI,"shell < TI > < 5 section points > : SPOS, (fraction = 1.0)",2.41946
C:/Users/srbb21/AppData/Local/Temp/rx18_gr30001521653382.841.odb,RELAX,Increment    105: Step Time =    1.000,SHELL-1,19,-13.1525,0.25,12.2861,ASSEMBLY_SHELL-1_ALLEL,TI,"shell < TI > < 5 section points > : SNEG, (fraction = -1.0)",117.706
C:/Users/srbb21/AppData/Local/Temp/rx18_gr30001521653382.841.odb,RELAX,Increment    105: Step Time =    1.000,SHELL-1,20,-13.1525,0.75,12.2861,ASSEMBLY_SHELL-1_ALLEL,TI,"shell < TI > < 5 section points > : SPOS, (fraction = 1.0)",4.08189
C:/Users/srbb21/AppData/Local/Temp/rx18_gr30001521653382.841.odb,RELAX,Increment    105: Step Time =    1.000,SHELL-1,20,-13.1525,0.75,12.2861,ASSEMBLY_SHELL-1_ALLEL,TI,"shell < TI > < 5 section points > : SNEG, (fraction = -1.0)",117.81
C:/Users/srbb21/AppData/Local/Temp/rx18_gr30001521653382.841.odb,RELAX,Increment    105: Step Time =    1.000,SHELL-1,21,-13.1525,1.25,12.2861,ASSEMBLY_SHELL-1_ALLEL,TI,"shell < TI > < 5 section points > : SPOS, (fraction = 1.0)",6.20881
C:/Users/srbb21/AppData/Local/Temp/rx18_gr30001521653382.841.odb,RELAX,Increment    105: Step Time =    1.000,SHELL-1,21,-13.1525,1.25,12.2861,ASSEMBLY_SHELL-1_ALLEL,TI,"shell < TI > < 5 section points > : SNEG, (fraction = -1.0)",117.994
C:/Users/srbb21/AppData/Local/Temp/rx18_gr30001521653382.841.odb,RELAX,Increment    105: Step Time =    1.000,SHELL-1,22,-13.1525,1.75,12.2861,ASSEMBLY_SHELL-1_ALLEL,TI,"shell < TI > < 5 section points > : SNEG, (fraction = -1.0)",118.208
C:/Users/srbb21/AppData/Local/Temp/rx18_gr30001521653382.841.odb,RELAX,Increment    105: Step Time =    1.000,SHELL-1,22,-13.1525,1.75,12.2861,ASSEMBLY_SHELL-1_ALLEL,TI,"shell < TI > < 5 section points > : SPOS, (fraction = 1.0)",8.48521
C:/Users/srbb21/AppData/Local/Temp/rx18_gr30001521653382.841.odb,RELAX,Increment    105: Step Time =    1.000,SHELL-1,23,-13.1525,2.25,12.2861,ASSEMBLY_SHELL-1_ALLEL,TI,"shell < TI > < 5 section points > : SPOS, (fraction = 1.0)",10.8459
C:/Users/srbb21/AppData/Local/Temp/rx18_gr30001521653382.841.odb,RELAX,Increment    105: Step Time =    1.000,SHELL-1,23,-13.1525,2.25,12.2861,ASSEMBLY_SHELL-1_ALLEL,TI,"shell < TI > < 5 section points > : SNEG, (fraction = -1.0)",118.37
C:/Users/srbb21/AppData/Local/Temp/rx18_gr30001521653382.841.odb,RELAX,Increment    105: Step Time =    1.000,SHELL-1,24,-13.1525,2.75,12.2861,ASSEMBLY_SHELL-1_ALLEL,TI,"shell < TI > < 5 section points > : SPOS, (fraction = 1.0)",13.2677
C:/Users/srbb21/AppData/Local/Temp/rx18_gr30001521653382.841.odb,RELAX,Increment    105: Step Time =    1.000,SHELL-1,24,-13.1525,2.75,12.2861,ASSEMBLY_SHELL-1_ALLEL,TI,"shell < TI > < 5 section points > : SNEG, (fraction = -1.0)",118.371
C:/Users/srbb21/AppData/Local/Temp/rx18_gr30001521653382.841.odb,RELAX,Increment    105: Step Time =    1.000,SHELL-1,25,-13.1525,3.25,12.2861,ASSEMBLY_SHELL-1_ALLEL,TI,"shell < TI > < 5 section points > : SPOS, (fraction = 1.0)",15.7353
C:/Users/srbb21/AppData/Local/Temp/rx18_gr30001521653382.841.odb,RELAX,Increment    105: Step Time =    1.000,SHELL-1,25,-13.1525,3.25,12.2861,ASSEMBLY_SHELL-1_ALLEL,TI,"shell < TI > < 5 section points > : SNEG, (fraction = -1.0)",118.05
C:/Users/srbb21/AppData/Local/Temp/rx18_gr30001521653382.841.odb,RELAX,Increment    105: Step Time =    1.000,SHELL-1,26,-13.1525,3.75,12.2861,ASSEMBLY_SHELL-1_ALLEL,TI,"shell < TI > < 5 section points > : SNEG, (fraction = -1.0)",117.204
C:/Users/srbb21/AppData/Local/Temp/rx18_gr30001521653382.841.odb,RELAX,Increment    105: Step Time =    1.000,SHELL-1,26,-13.1525,3.75,12.2861,ASSEMBLY_SHELL-1_ALLEL,TI,"shell < TI > < 5 section points > : SPOS, (fraction = 1.0)",18.227
C:/Users/srbb21/AppData/Local/Temp/rx18_gr30001521653382.841.odb,RELAX,Increment    105: Step Time =    1.000,SHELL-1,27,-13.1525,4.25,12.2861,ASSEMBLY_SHELL-1_ALLEL,TI,"shell < TI > < 5 section points > : SPOS, (fraction = 1.0)",20.7124
C:/Users/srbb21/AppData/Local/Temp/rx18_gr30001521653382.841.odb,RELAX,Increment    105: Step Time =    1.000,SHELL-1,27,-13.1525,4.25,12.2861,ASSEMBLY_SHELL-1_ALLEL,TI,"shell < TI > < 5 section points > : SNEG, (fraction = -1.0)",115.554
C:/Users/srbb21/AppData/Local/Temp/rx18_gr30001521653382.841.odb,RELAX,Increment    105: Step Time =    1.000,SHELL-1,28,-13.1525,4.75,12.2861,ASSEMBLY_SHELL-1_ALLEL,TI,"shell < TI > < 5 section points > : SPOS, (fraction = 1.0)",23.1435
C:/Users/srbb21/AppData/Local/Temp/rx18_gr30001521653382.841.odb,RELAX,Increment    105: Step Time =    1.000,SHELL-1,28,-13.1525,4.75,12.2861,ASSEMBLY_SHELL-1_ALLEL,TI,"shell < TI > < 5 section points > : SNEG, (fraction = -1.0)",112.754
C:/Users/srbb21/AppData/Local/Temp/rx18_gr30001521653382.841.odb,RELAX,Increment    105: Step Time =    1.000,SHELL-1,29,-13.1525,5.25,12.2861,ASSEMBLY_SHELL-1_ALLEL,TI,"shell < TI > < 5 section points > : SPOS, (fraction = 1.0)",25.4482
C:/Users/srbb21/AppData/Local/Temp/rx18_gr30001521653382.841.odb,RELAX,Increment    105: Step Time =    1.000,SHELL-1,29,-13.1525,5.25,12.2861,ASSEMBLY_SHELL-1_ALLEL,TI,"shell < TI > < 5 section points > : SNEG, (fraction = -1.0)",108.347
C:/Users/srbb21/AppData/Local/Temp/rx18_gr30001521653382.841.odb,RELAX,Increment    105: Step Time =    1.000,SHELL-1,30,-13.1525,5.75,12.2861,ASSEMBLY_SHELL-1_ALLEL,TI,"shell < TI > < 5 section points > : SNEG, (fraction = -1.0)",101.792
C:/Users/srbb21/AppData/Local/Temp/rx18_gr30001521653382.841.odb,RELAX,Increment    105: Step Time =    1.000,SHELL-1,30,-13.1525,5.75,12.2861,ASSEMBLY_SHELL-1_ALLEL,TI,"shell < TI > < 5 section points > : SPOS, (fraction = 1.0)",27.516
C:/Users/srbb21/AppData/Local/Temp/rx18_gr30001521653382.841.odb,RELAX,Increment    105: Step Time =    1.000,SHELL-1,31,-13.1525,6.25,12.2861,ASSEMBLY_SHELL-1_ALLEL,TI,"shell < TI > < 5 section points > : SPOS, (fraction = 1.0)",29.1693
C:/Users/srbb21/AppData/Local/Temp/rx18_gr30001521653382.841.odb,RELAX,Increment    105: Step Time =    1.000,SHELL-1,31,-13.1525,6.25,12.2861,ASSEMBLY_SHELL-1_ALLEL,TI,"shell < TI > < 5 section points > : SNEG, (fraction = -1.0)",92.438
C:/Users/srbb21/AppData/Local/Temp/rx18_gr30001521653382.841.odb,RELAX,Increment    105: Step Time =    1.000,SHELL-1,32,-13.1525,6.75,12.2861,ASSEMBLY_SHELL-1_ALLEL,TI,"shell < TI > < 5 section points > : SPOS, (fraction = 1.0)",30.1366
C:/Users/srbb21/AppData/Local/Temp/rx18_gr30001521653382.841.odb,RELAX,Increment    105: Step Time =    1.000,SHELL-1,32,-13.1525,6.75,12.2861,ASSEMBLY_SHELL-1_ALLEL,TI,"shell < TI > < 5 section points > : SNEG, (fraction = -1.0)",79.6706
C:/Users/srbb21/AppData/Local/Temp/rx18_gr30001521653382.841.odb,RELAX,Increment    105: Step Time =    1.000,SHELL-1,33,-13.1525,7.25,12.2861,ASSEMBLY_SHELL-1_ALLEL,TI,"shell < TI > < 5 section points > : SPOS, (fraction = 1.0)",29.9279
C:/Users/srbb21/AppData/Local/Temp/rx18_gr30001521653382.841.odb,RELAX,Increment    105: Step Time =    1.000,SHELL-1,33,-13.1525,7.25,12.2861,ASSEMBLY_SHELL-1_ALLEL,TI,"shell < TI > < 5 section points > : SNEG, (fraction = -1.0)",63.0508
C:/Users/srbb21/AppData/Local/Temp/rx18_gr30001521653382.841.odb,RELAX,Increment    105: Step Time =    1.000,SHELL-1,34,-13.1525,7.75,12.2861,ASSEMBLY_SHELL-1_ALLEL,TI,"shell < TI > < 5 section points > : SNEG, (fraction = -1.0)",43.0435
C:/Users/srbb21/AppData/Local/Temp/rx18_gr30001521653382.841.odb,RELAX,Increment    105: Step Time =    1.000,SHELL-1,34,-13.1525,7.75,12.2861,ASSEMBLY_SHELL-1_ALLEL,TI,"shell < TI > < 5 section points > : SPOS, (fraction = 1.0)",27.8248
C:/Users/srbb21/AppData/Local/Temp/rx18_gr30001521653382.841.odb,RELAX,Increment    105: Step Time =    1.000,SHELL-1,35,-13.1525,8.25,12.2861,ASSEMBLY_SHELL-1_ALLEL,TI,"shell < TI > < 5 section points > : SPOS, (fraction = 1.0)",22.4207
C:/Users/srbb21/AppData/Local/Temp/rx18_gr30001521653382.841.odb,RELAX,Increment    105: Step Time =    1.000,SHELL-1,35,-13.1525,8.25,12.2861,ASSEMBLY_SHELL-1_ALLEL,TI,"shell < TI > < 5 section points > : SNEG, (fraction = -1.0)",22.0362
C:/Users/srbb21/AppData/Local/Temp/rx18_gr30001521653382.841.odb,RELAX,Increment    105: Step Time =    1.000,SHELL-1,36,-13.1525,8.75,12.2861,ASSEMBLY_SHELL-1_ALLEL,TI,"shell < TI > < 5 section points > : SPOS, (fraction = 1.0)",12.8883
C:/Users/srbb21/AppData/Local/Temp/rx18_gr30001521653382.841.odb,RELAX,Increment    105: Step Time =    1.000,SHELL-1,36,-13.1525,8.75,12.2861,ASSEMBLY_SHELL-1_ALLEL,TI,"shell < TI > < 5 section points > : SNEG, (fraction = -1.0)",7.38582
C:/Users/srbb21/AppData/Local/Temp/rx18_gr30001521653382.841.odb,RELAX,Increment    105: Step Time =    1.000,SHELL-1,37,-12.8062,-8.75,12.6467,ASSEMBLY_SHELL-1_ALLEL,TI,"shell < TI > < 5 section points > : SPOS, (fraction = 1.0)",36.8137
C:/Users/srbb21/AppData/Local/Temp/rx18_gr30001521653382.841.odb,RELAX,Increment    105: Step Time =    1.000,SHELL-1,37,-12.8062,-8.75,12.6467,ASSEMBLY_SHELL-1_ALLEL,TI,"shell < TI > < 5 section points > : SNEG, (fraction = -1.0)",14.277
C:/Users/srbb21/AppData/Local/Temp/rx18_gr30001521653382.841.odb,RELAX,Increment    105: Step Time =    1.000,SHELL-1,38,-12.8062,-8.25,12.6467,ASSEMBLY_SHELL-1_ALLEL,TI,"shell < TI > < 5 section points > : SPOS, (fraction = 1.0)",41.4097
C:/Users/srbb21/AppData/Local/Temp/rx18_gr30001521653382.841.odb,RELAX,Increment    105: Step Time =    1.000,SHELL-1,38,-12.8062,-8.25,12.6467,ASSEMBLY_SHELL-1_ALLEL,TI,"shell < TI > < 5 section points > : SNEG, (fraction = -1.0)",26.5936
C:/Users/srbb21/AppData/Local/Temp/rx18_gr30001521653382.841.odb,RELAX,Increment    105: Step Time =    1.000,SHELL-1,39,-12.8062,-7.75,12.6467,ASSEMBLY_SHELL-1_ALLEL,TI,"shell < TI > < 5 section points > : SNEG, (fraction = -1.0)",35.1848
C:/Users/srbb21/AppData/Local/Temp/rx18_gr30001521653382.841.odb,RELAX,Increment    105: Step Time =    1.000,SHELL-1,39,-12.8062,-7.75,12.6467,ASSEMBLY_SHELL-1_ALLEL,TI,"shell < TI > < 5 section points > : SPOS, (fraction = 1.0)",46.7442
C:/Users/srbb21/AppData/Local/Temp/rx18_gr30001521653382.841.odb,RELAX,Increment    105: Step Time =    1.000,SHELL-1,40,-12.8062,-7.25,12.6467,ASSEMBLY_SHELL-1_ALLEL,TI,"shell < TI > < 5 section points > : SPOS, (fraction = 1.0)",49.206
C:/Users/srbb21/AppData/Local/Temp/rx18_gr30001521653382.841.odb,RELAX,Increment    105: Step Time =    1.000,SHELL-1,40,-12.8062,-7.25,12.6467,ASSEMBLY_SHELL-1_ALLEL,TI,"shell < TI > < 5 section points > : SNEG, (fraction = -1.0)",45.6006
C:/Users/srbb21/AppData/Local/Temp/rx18_gr30001521653382.841.odb,RELAX,Increment    105: Step Time =    1.000,SHELL-1,41,-12.8062,-6.75,12.6467,ASSEMBLY_SHELL-1_ALLEL,TI,"shell < TI > < 5 section points > : SPOS, (fraction = 1.0)",49.4894
C:/Users/srbb21/AppData/Local/Temp/rx18_gr30001521653382.841.odb,RELAX,Increment    105: Step Time =    1.000,SHELL-1,41,-12.8062,-6.75,12.6467,ASSEMBLY_SHELL-1_ALLEL,TI,"shell < TI > < 5 section points > : SNEG, (fraction = -1.0)",56.4682
C:/Users/srbb21/AppData/Local/Temp/rx18_gr30001521653382.841.odb,RELAX,Increment    105: Step Time =    1.000,SHELL-1,42,-12.8062,-6.25,12.6467,ASSEMBLY_SHELL-1_ALLEL,TI,"shell < TI > < 5 section points > : SPOS, (fraction = 1.0)",48.5733
C:/Users/srbb21/AppData/Local/Temp/rx18_gr30001521653382.841.odb,RELAX,Increment    105: Step Time =    1.000,SHELL-1,42,-12.8062,-6.25,12.6467,ASSEMBLY_SHELL-1_ALLEL,TI,"shell < TI > < 5 section points > : SNEG, (fraction = -1.0)",66.0372
C:/Users/srbb21/AppData/Local/Temp/rx18_gr30001521653382.841.odb,RELAX,Increment    105: Step Time =    1.000,SHELL-1,43,-12.8062,-5.75,12.6467,ASSEMBLY_SHELL-1_ALLEL,TI,"shell < TI > < 5 section points > : SNEG, (fraction = -1.0)",73.676
C:/Users/srbb21/AppData/Local/Temp/rx18_gr30001521653382.841.odb,RELAX,Increment    105: Step Time =    1.000,SHELL-1,43,-12.8062,-5.75,12.6467,ASSEMBLY_SHELL-1_ALLEL,TI,"shell < TI > < 5 section points > : SPOS, (fraction = 1.0)",46.9014
C:/Users/srbb21/AppData/Local/Temp/rx18_gr30001521653382.841.odb,RELAX,Increment    105: Step Time =    1.000,SHELL-1,44,-12.8062,-5.25,12.6467,ASSEMBLY_SHELL-1_ALLEL,TI,"shell < TI > < 5 section points > : SPOS, (fraction = 1.0)",44.8494
C:/Users/srbb21/AppData/Local/Temp/rx18_gr30001521653382.841.odb,RELAX,Increment    105: Step Time =    1.000,SHELL-1,44,-12.8062,-5.25,12.6467,ASSEMBLY_SHELL-1_ALLEL,TI,"shell < TI > < 5 section points > : SNEG, (fraction = -1.0)",79.3934
C:/Users/srbb21/AppData/Local/Temp/rx18_gr30001521653382.841.odb,RELAX,Increment    105: Step Time =    1.000,SHELL-1,45,-12.8062,-4.75,12.6467,ASSEMBLY_SHELL-1_ALLEL,TI,"shell < TI > < 5 section points > : SPOS, (fraction = 1.0)",42.644
C:/Users/srbb21/AppData/Local/Temp/rx18_gr30001521653382.841.odb,RELAX,Increment    105: Step Time =    1.000,SHELL-1,45,-12.8062,-4.75,12.6467,ASSEMBLY_SHELL-1_ALLEL,TI,"shell < TI > < 5 section points > : SNEG, (fraction = -1.0)",83.4491
C:/Users/srbb21/AppData/Local/Temp/rx18_gr30001521653382.841.odb,RELAX,Increment    105: Step Time =    1.000,SHELL-1,46,-12.8062,-4.25,12.6467,ASSEMBLY_SHELL-1_ALLEL,TI,"shell < TI > < 5 section points > : SPOS, (fraction = 1.0)",40.4585
C:/Users/srbb21/AppData/Local/Temp/rx18_gr30001521653382.841.odb,RELAX,Increment    105: Step Time =    1.000,SHELL-1,46,-12.8062,-4.25,12.6467,ASSEMBLY_SHELL-1_ALLEL,TI,"shell < TI > < 5 section points > : SNEG, (fraction = -1.0)",86.1813
C:/Users/srbb21/AppData/Local/Temp/rx18_gr30001521653382.841.odb,RELAX,Increment    105: Step Time =    1.000,SHELL-1,47,-12.8062,-3.75,12.6467,ASSEMBLY_SHELL-1_ALLEL,TI,"shell < TI > < 5 section points > : SNEG, (fraction = -1.0)",87.9065
C:/Users/srbb21/AppData/Local/Temp/rx18_gr30001521653382.841.odb,RELAX,Increment    105: Step Time =    1.000,SHELL-1,47,-12.8062,-3.75,12.6467,ASSEMBLY_SHELL-1_ALLEL,TI,"shell < TI > < 5 section points > : SPOS, (fraction = 1.0)",38.4124
C:/Users/srbb21/AppData/Local/Temp/rx18_gr30001521653382.841.odb,RELAX,Increment    105: Step Time =    1.000,SHELL-1,48,-12.8062,-3.25,12.6467,ASSEMBLY_SHELL-1_ALLEL,TI,"shell < TI > < 5 section points > : SPOS, (fraction = 1.0)",36.5815
C:/Users/srbb21/AppData/Local/Temp/rx18_gr30001521653382.841.odb,RELAX,Increment    105: Step Time =    1.000,SHELL-1,48,-12.8062,-3.25,12.6467,ASSEMBLY_SHELL-1_ALLEL,TI,"shell < TI > < 5 section points > : SNEG, (fraction = -1.0)",88.906
C:/Users/srbb21/AppData/Local/Temp/rx18_gr30001521653382.841.odb,RELAX,Increment    105: Step Time =    1.000,SHELL-1,49,-12.8062,-2.75,12.6467,ASSEMBLY_SHELL-1_ALLEL,TI,"shell < TI > < 5 section points > : SPOS, (fraction = 1.0)",35.0147
C:/Users/srbb21/AppData/Local/Temp/rx18_gr30001521653382.841.odb,RELAX,Increment    105: Step Time =    1.000,SHELL-1,49,-12.8062,-2.75,12.6467,ASSEMBLY_SHELL-1_ALLEL,TI,"shell < TI > < 5 section points > : SNEG, (fraction = -1.0)",89.4042
C:/Users/srbb21/AppData/Local/Temp/rx18_gr30001521653382.841.odb,RELAX,Increment    105: Step Time =    1.000,SHELL-1,50,-12.8062,-2.25,12.6467,ASSEMBLY_SHELL-1_ALLEL,TI,"shell < TI > < 5 section points > : SPOS, (fraction = 1.0)",33.7289
C:/Users/srbb21/AppData/Local/Temp/rx18_gr30001521653382.841.odb,RELAX,Increment    105: Step Time =    1.000,SHELL-1,50,-12.8062,-2.25,12.6467,ASSEMBLY_SHELL-1_ALLEL,TI,"shell < TI > < 5 section points > : SNEG, (fraction = -1.0)",89.5833
C:/Users/srbb21/AppData/Local/Temp/rx18_gr30001521653382.841.odb,RELAX,Increment    105: Step Time =    1.000,SHELL-1,51,-12.8062,-1.75,12.6467,ASSEMBLY_SHELL-1_ALLEL,TI,"shell < TI > < 5 section points > : SNEG, (fraction = -1.0)",89.579
C:/Users/srbb21/AppData/Local/Temp/rx18_gr30001521653382.841.odb,RELAX,Increment    105: Step Time =    1.000,SHELL-1,51,-12.8062,-1.75,12.6467,ASSEMBLY_SHELL-1_ALLEL,TI,"shell < TI > < 5 section points > : SPOS, (fraction = 1.0)",32.7277
C:/Users/srbb21/AppData/Local/Temp/rx18_gr30001521653382.841.odb,RELAX,Increment    105: Step Time =    1.000,SHELL-1,52,-12.8062,-1.25,12.6467,ASSEMBLY_SHELL-1_ALLEL,TI,"shell < TI > < 5 section points > : SPOS, (fraction = 1.0)",31.9977
C:/Users/srbb21/AppData/Local/Temp/rx18_gr30001521653382.841.odb,RELAX,Increment    105: Step Time =    1.000,SHELL-1,52,-12.8062,-1.25,12.6467,ASSEMBLY_SHELL-1_ALLEL,TI,"shell < TI > < 5 section points > : SNEG, (fraction = -1.0)",89.4948
C:/Users/srbb21/AppData/Local/Temp/rx18_gr30001521653382.841.odb,RELAX,Increment    105: Step Time =    1.000,SHELL-1,53,-12.8062,-0.75,12.6467,ASSEMBLY_SHELL-1_ALLEL,TI,"shell < TI > < 5 section points > : SPOS, (fraction = 1.0)",31.5243
C:/Users/srbb21/AppData/Local/Temp/rx18_gr30001521653382.841.odb,RELAX,Increment    105: Step Time =    1.000,SHELL-1,53,-12.8062,-0.75,12.6467,ASSEMBLY_SHELL-1_ALLEL,TI,"shell < TI > < 5 section points > : SNEG, (fraction = -1.0)",89.4008
C:/Users/srbb21/AppData/Local/Temp/rx18_gr30001521653382.841.odb,RELAX,Increment    105: Step Time =    1.000,SHELL-1,54,-12.8062,-0.25,12.6467,ASSEMBLY_SHELL-1_ALLEL,TI,"shell < TI > < 5 section points > : SPOS, (fraction = 1.0)",31.2917
C:/Users/srbb21/AppData/Local/Temp/rx18_gr30001521653382.841.odb,RELAX,Increment    105: Step Time =    1.000,SHELL-1,54,-12.8062,-0.25,12.6467,ASSEMBLY_SHELL-1_ALLEL,TI,"shell < TI > < 5 section points > : SNEG, (fraction = -1.0)",89.343
C:/Users/srbb21/AppData/Local/Temp/rx18_gr30001521653382.841.odb,RELAX,Increment    105: Step Time =    1.000,SHELL-1,55,-12.8062,0.25,12.6467,ASSEMBLY_SHELL-1_ALLEL,TI,"shell < TI > < 5 section points > : SPOS, (fraction = 1.0)",31.2917
C:/Users/srbb21/AppData/Local/Temp/rx18_gr30001521653382.841.odb,RELAX,Increment    105: Step Time =    1.000,SHELL-1,55,-12.8062,0.25,12.6467,ASSEMBLY_SHELL-1_ALLEL,TI,"shell < TI > < 5 section points > : SNEG, (fraction = -1.0)",89.343
C:/Users/srbb21/AppData/Local/Temp/rx18_gr30001521653382.841.odb,RELAX,Increment    105: Step Time =    1.000,SHELL-1,56,-12.8062,0.75,12.6467,ASSEMBLY_SHELL-1_ALLEL,TI,"shell < TI > < 5 section points > : SNEG, (fraction = -1.0)",89.4008
C:/Users/srbb21/AppData/Local/Temp/rx18_gr30001521653382.841.odb,RELAX,Increment    105: Step Time =    1.000,SHELL-1,56,-12.8062,0.75,12.6467,ASSEMBLY_SHELL-1_ALLEL,TI,"shell < TI > < 5 section points > : SPOS, (fraction = 1.0)",31.5243
C:/Users/srbb21/AppData/Local/Temp/rx18_gr30001521653382.841.odb,RELAX,Increment    105: Step Time =    1.000,SHELL-1,57,-12.8062,1.25,12.6467,ASSEMBLY_SHELL-1_ALLEL,TI,"shell < TI > < 5 section points > : SPOS, (fraction = 1.0)",31.9977
C:/Users/srbb21/AppData/Local/Temp/rx18_gr30001521653382.841.odb,RELAX,Increment    105: Step Time =    1.000,SHELL-1,57,-12.8062,1.25,12.6467,ASSEMBLY_SHELL-1_ALLEL,TI,"shell < TI > < 5 section points > : SNEG, (fraction = -1.0)",89.4948
C:/Users/srbb21/AppData/Local/Temp/rx18_gr30001521653382.841.odb,RELAX,Increment    105: Step Time =    1.000,SHELL-1,58,-12.8062,1.75,12.6467,ASSEMBLY_SHELL-1_ALLEL,TI,"shell < TI > < 5 section points > : SPOS, (fraction = 1.0)",32.7277
C:/Users/srbb21/AppData/Local/Temp/rx18_gr30001521653382.841.odb,RELAX,Increment    105: Step Time =    1.000,SHELL-1,58,-12.8062,1.75,12.6467,ASSEMBLY_SHELL-1_ALLEL,TI,"shell < TI > < 5 section points > : SNEG, (fraction = -1.0)",89.579
C:/Users/srbb21/AppData/Local/Temp/rx18_gr30001521653382.841.odb,RELAX,Increment    105: Step Time =    1.000,SHELL-1,59,-12.8062,2.25,12.6467,ASSEMBLY_SHELL-1_ALLEL,TI,"shell < TI > < 5 section points > : SPOS, (fraction = 1.0)",33.7289
C:/Users/srbb21/AppData/Local/Temp/rx18_gr30001521653382.841.odb,RELAX,Increment    105: Step Time =    1.000,SHELL-1,59,-12.8062,2.25,12.6467,ASSEMBLY_SHELL-1_ALLEL,TI,"shell < TI > < 5 section points > : SNEG, (fraction = -1.0)",89.5833
C:/Users/srbb21/AppData/Local/Temp/rx18_gr30001521653382.841.odb,RELAX,Increment    105: Step Time =    1.000,SHELL-1,60,-12.8062,2.75,12.6467,ASSEMBLY_SHELL-1_ALLEL,TI,"shell < TI > < 5 section points > : SNEG, (fraction = -1.0)",89.4042
C:/Users/srbb21/AppData/Local/Temp/rx18_gr30001521653382.841.odb,RELAX,Increment    105: Step Time =    1.000,SHELL-1,60,-12.8062,2.75,12.6467,ASSEMBLY_SHELL-1_ALLEL,TI,"shell < TI > < 5 section points > : SPOS, (fraction = 1.0)",35.0147
C:/Users/srbb21/AppData/Local/Temp/rx18_gr30001521653382.841.odb,RELAX,Increment    105: Step Time =    1.000,SHELL-1,61,-12.8062,3.25,12.6467,ASSEMBLY_SHELL-1_ALLEL,TI,"shell < TI > < 5 section points > : SPOS, (fraction = 1.0)",36.5815
C:/Users/srbb21/AppData/Local/Temp/rx18_gr30001521653382.841.odb,RELAX,Increment    105: Step Time =    1.000,SHELL-1,61,-12.8062,3.25,12.6467,ASSEMBLY_SHELL-1_ALLEL,TI,"shell < TI > < 5 section points > : SNEG, (fraction = -1.0)",88.906
C:/Users/srbb21/AppData/Local/Temp/rx18_gr30001521653382.841.odb,RELAX,Increment    105: Step Time =    1.000,SHELL-1,62,-12.8062,3.75,12.6467,ASSEMBLY_SHELL-1_ALLEL,TI,"shell < TI > < 5 section points > : SPOS, (fraction = 1.0)",38.4124
C:/Users/srbb21/AppData/Local/Temp/rx18_gr30001521653382.841.odb,RELAX,Increment    105: Step Time =    1.000,SHELL-1,62,-12.8062,3.75,12.6467,ASSEMBLY_SHELL-1_ALLEL,TI,"shell < TI > < 5 section points > : SNEG, (fraction = -1.0)",87.9065
C:/Users/srbb21/AppData/Local/Temp/rx18_gr30001521653382.841.odb,RELAX,Increment    105: Step Time =    1.000,SHELL-1,63,-12.8062,4.25,12.6467,ASSEMBLY_SHELL-1_ALLEL,TI,"shell < TI > < 5 section points > : SPOS, (fraction = 1.0)",40.4585
C:/Users/srbb21/AppData/Local/Temp/rx18_gr30001521653382.841.odb,RELAX,Increment    105: Step Time =    1.000,SHELL-1,63,-12.8062,4.25,12.6467,ASSEMBLY_SHELL-1_ALLEL,TI,"shell < TI > < 5 section points > : SNEG, (fraction = -1.0)",86.1813
C:/Users/srbb21/AppData/Local/Temp/rx18_gr30001521653382.841.odb,RELAX,Increment    105: Step Time =    1.000,SHELL-1,64,-12.8062,4.75,12.6467,ASSEMBLY_SHELL-1_ALLEL,TI,"shell < TI > < 5 section points > : SNEG, (fraction = -1.0)",83.4491
C:/Users/srbb21/AppData/Local/Temp/rx18_gr30001521653382.841.odb,RELAX,Increment    105: Step Time =    1.000,SHELL-1,64,-12.8062,4.75,12.6467,ASSEMBLY_SHELL-1_ALLEL,TI,"shell < TI > < 5 section points > : SPOS, (fraction = 1.0)",42.644
C:/Users/srbb21/AppData/Local/Temp/rx18_gr30001521653382.841.odb,RELAX,Increment    105: Step Time =    1.000,SHELL-1,65,-12.8062,5.25,12.6467,ASSEMBLY_SHELL-1_ALLEL,TI,"shell < TI > < 5 section points > : SPOS, (fraction = 1.0)",44.8494
C:/Users/srbb21/AppData/Local/Temp/rx18_gr30001521653382.841.odb,RELAX,Increment    105: Step Time =    1.000,SHELL-1,65,-12.8062,5.25,12.6467,ASSEMBLY_SHELL-1_ALLEL,TI,"shell < TI > < 5 section points > : SNEG, (fraction = -1.0)",79.3934
C:/Users/srbb21/AppData/Local/Temp/rx18_gr30001521653382.841.odb,RELAX,Increment    105: Step Time =    1.000,SHELL-1,66,-12.8062,5.75,12.6467,ASSEMBLY_SHELL-1_ALLEL,TI,"shell < TI > < 5 section points > : SPOS, (fraction = 1.0)",46.9014
C:/Users/srbb21/AppData/Local/Temp/rx18_gr30001521653382.841.odb,RELAX,Increment    105: Step Time =    1.000,SHELL-1,66,-12.8062,5.75,12.6467,ASSEMBLY_SHELL-1_ALLEL,TI,"shell < TI > < 5 section points > : SNEG, (fraction = -1.0)",73.676
C:/Users/srbb21/AppData/Local/Temp/rx18_gr30001521653382.841.odb,RELAX,Increment    105: Step Time =    1.000,SHELL-1,67,-12.8062,6.25,12.6467,ASSEMBLY_SHELL-1_ALLEL,TI,"shell < TI > < 5 section points > : SPOS, (fraction = 1.0)",48.5733
C:/Users/srbb21/AppData/Local/Temp/rx18_gr30001521653382.841.odb,RELAX,Increment    105: Step Time =    1.000,SHELL-1,67,-12.8062,6.25,12.6467,ASSEMBLY_SHELL-1_ALLEL,TI,"shell < TI > < 5 section points > : SNEG, (fraction = -1.0)",66.0372
C:/Users/srbb21/AppData/Local/Temp/rx18_gr30001521653382.841.odb,RELAX,Increment    105: Step Time =    1.000,SHELL-1,68,-12.8062,6.75,12.6467,ASSEMBLY_SHELL-1_ALLEL,TI,"shell < TI > < 5 section points > : SNEG, (fraction = -1.0)",56.4682
C:/Users/srbb21/AppData/Local/Temp/rx18_gr30001521653382.841.odb,RELAX,Increment    105: Step Time =    1.000,SHELL-1,68,-12.8062,6.75,12.6467,ASSEMBLY_SHELL-1_ALLEL,TI,"shell < TI > < 5 section points > : SPOS, (fraction = 1.0)",49.4894
C:/Users/srbb21/AppData/Local/Temp/rx18_gr30001521653382.841.odb,RELAX,Increment    105: Step Time =    1.000,SHELL-1,69,-12.8062,7.25,12.6467,ASSEMBLY_SHELL-1_ALLEL,TI,"shell < TI > < 5 section points > : SPOS, (fraction = 1.0)",49.206
C:/Users/srbb21/AppData/Local/Temp/rx18_gr30001521653382.841.odb,RELAX,Increment    105: Step Time =    1.000,SHELL-1,69,-12.8062,7.25,12.6467,ASSEMBLY_SHELL-1_ALLEL,TI,"shell < TI > < 5 section points > : SNEG, (fraction = -1.0)",45.6006
C:/Users/srbb21/AppData/Local/Temp/rx18_gr30001521653382.841.odb,RELAX,Increment    105: Step Time =    1.000,SHELL-1,70,-12.8062,7.75,12.6467,ASSEMBLY_SHELL-1_ALLEL,TI,"shell < TI > < 5 section points > : SPOS, (fraction = 1.0)",46.7442
C:/Users/srbb21/AppData/Local/Temp/rx18_gr30001521653382.841.odb,RELAX,Increment    105: Step Time =    1.000,SHELL-1,70,-12.8062,7.75,12.6467,ASSEMBLY_SHELL-1_ALLEL,TI,"shell < TI > < 5 section points > : SNEG, (fraction = -1.0)",35.1848
C:/Users/srbb21/AppData/Local/Temp/rx18_gr30001521653382.841.odb,RELAX,Increment    105: Step Time =    1.000,SHELL-1,71,-12.8062,8.25,12.6467,ASSEMBLY_SHELL-1_ALLEL,TI,"shell < TI > < 5 section points > : SPOS, (fraction = 1.0)",41.4097
C:/Users/srbb21/AppData/Local/Temp/rx18_gr30001521653382.841.odb,RELAX,Increment    105: Step Time =    1.000,SHELL-1,71,-12.8062,8.25,12.6467,ASSEMBLY_SHELL-1_ALLEL,TI,"shell < TI > < 5 section points > : SNEG, (fraction = -1.0)",26.5936
C:/Users/srbb21/AppData/Local/Temp/rx18_gr30001521653382.841.odb,RELAX,Increment    105: Step Time =    1.000,SHELL-1,72,-12.8062,8.75,12.6467,ASSEMBLY_SHELL-1_ALLEL,TI,"shell < TI > < 5 section points > : SPOS, (fraction = 1.0)",36.8137
C:/Users/srbb21/AppData/Local/Temp/rx18_gr30001521653382.841.odb,RELAX,Increment    105: Step Time =    1.000,SHELL-1,72,-12.8062,8.75,12.6467,ASSEMBLY_SHELL-1_ALLEL,TI,"shell < TI > < 5 section points > : SNEG, (fraction = -1.0)",14.277
C:/Users/srbb21/AppData/Local/Temp/rx18_gr30001521653382.841.odb,RELAX,Increment    105: Step Time =    1.000,SHELL-1,73,-12.45,-8.75,12.9975,ASSEMBLY_SHELL-1_ALLEL,TI,"shell < TI > < 5 section points > : SNEG, (fraction = -1.0)",21.2265
C:/Users/srbb21/AppData/Local/Temp/rx18_gr30001521653382.841.odb,RELAX,Increment    105: Step Time =    1.000,SHELL-1,73,-12.45,-8.75,12.9975,ASSEMBLY_SHELL-1_ALLEL,TI,"shell < TI > < 5 section points > : SPOS, (fraction = 1.0)",63.4714
C:/Users/srbb21/AppData/Local/Temp/rx18_gr30001521653382.841.odb,RELAX,Increment    105: Step Time =    1.000,SHELL-1,74,-12.45,-8.25,12.9975,ASSEMBLY_SHELL-1_ALLEL,TI,"shell < TI > < 5 section points > : SPOS, (fraction = 1.0)",57.6684
C:/Users/srbb21/AppData/Local/Temp/rx18_gr30001521653382.841.odb,RELAX,Increment    105: Step Time =    1.000,SHELL-1,74,-12.45,-8.25,12.9975,ASSEMBLY_SHELL-1_ALLEL,TI,"shell < TI > < 5 section points > : SNEG, (fraction = -1.0)",37.4804
C:/Users/srbb21/AppData/Local/Temp/rx18_gr30001521653382.841.odb,RELAX,Increment    105: Step Time =    1.000,SHELL-1,75,-12.45,-7.75,12.9975,ASSEMBLY_SHELL-1_ALLEL,TI,"shell < TI > < 5 section points > : SPOS, (fraction = 1.0)",61.378
C:/Users/srbb21/AppData/Local/Temp/rx18_gr30001521653382.841.odb,RELAX,Increment    105: Step Time =    1.000,SHELL-1,75,-12.45,-7.75,12.9975,ASSEMBLY_SHELL-1_ALLEL,TI,"shell < TI > < 5 section points > : SNEG, (fraction = -1.0)",44.8475
C:/Users/srbb21/AppData/Local/Temp/rx18_gr30001521653382.841.odb,RELAX,Increment    105: Step Time =    1.000,SHELL-1,76,-12.45,-7.25,12.9975,ASSEMBLY_SHELL-1_ALLEL,TI,"shell < TI > < 5 section points > : SPOS, (fraction = 1.0)",65.3187
C:/Users/srbb21/AppData/Local/Temp/rx18_gr30001521653382.841.odb,RELAX,Increment    105: Step Time =    1.000,SHELL-1,76,-12.45,-7.25,12.9975,ASSEMBLY_SHELL-1_ALLEL,TI,"shell < TI > < 5 section points > : SNEG, (fraction = -1.0)",49.6787
C:/Users/srbb21/AppData/Local/Temp/rx18_gr30001521653382.841.odb,RELAX,Increment    105: Step Time =    1.000,SHELL-1,77,-12.45,-6.75,12.9975,ASSEMBLY_SHELL-1_ALLEL,TI,"shell < TI > < 5 section points > : SNEG, (fraction = -1.0)",54.3643
C:/Users/srbb21/AppData/Local/Temp/rx18_gr30001521653382.841.odb,RELAX,Increment    105: Step Time =    1.000,SHELL-1,77,-12.45,-6.75,12.9975,ASSEMBLY_SHELL-1_ALLEL,TI,"shell < TI > < 5 section points > : SPOS, (fraction = 1.0)",67.5953
C:/Users/srbb21/AppData/Local/Temp/rx18_gr30001521653382.841.odb,RELAX,Increment    105: Step Time =    1.000,SHELL-1,78,-12.45,-6.25,12.9975,ASSEMBLY_SHELL-1_ALLEL,TI,"shell < TI > < 5 section points > : SPOS, (fraction = 1.0)",68.3027
C:/Users/srbb21/AppData/Local/Temp/rx18_gr30001521653382.841.odb,RELAX,Increment    105: Step Time =    1.000,SHELL-1,78,-12.45,-6.25,12.9975,ASSEMBLY_SHELL-1_ALLEL,TI,"shell < TI > < 5 section points > : SNEG, (fraction = -1.0)",59.1339
C:/Users/srbb21/AppData/Local/Temp/rx18_gr30001521653382.841.odb,RELAX,Increment    105: Step Time =    1.000,SHELL-1,79,-12.45,-5.75,12.9975,ASSEMBLY_SHELL-1_ALLEL,TI,"shell < TI > < 5 section points > : SPOS, (fraction = 1.0)",67.9689
C:/Users/srbb21/AppData/Local/Temp/rx18_gr30001521653382.841.odb,RELAX,Increment    105: Step Time =    1.000,SHELL-1,79,-12.45,-5.75,12.9975,ASSEMBLY_SHELL-1_ALLEL,TI,"shell < TI > < 5 section points > : SNEG, (fraction = -1.0)",63.4738
C:/Users/srbb21/AppData/Local/Temp/rx18_gr30001521653382.841.odb,RELAX,Increment    105: Step Time =    1.000,SHELL-1,80,-12.45,-5.25,12.9975,ASSEMBLY_SHELL-1_ALLEL,TI,"shell < TI > < 5 section points > : SPOS, (fraction = 1.0)",66.9704
C:/Users/srbb21/AppData/Local/Temp/rx18_gr30001521653382.841.odb,RELAX,Increment    105: Step Time =    1.000,SHELL-1,80,-12.45,-5.25,12.9975,ASSEMBLY_SHELL-1_ALLEL,TI,"shell < TI > < 5 section points > : SNEG, (fraction = -1.0)",67.0785
C:/Users/srbb21/AppData/Local/Temp/rx18_gr30001521653382.841.odb,RELAX,Increment    105: Step Time =    1.000,SHELL-1,81,-12.45,-4.75,12.9975,ASSEMBLY_SHELL-1_ALLEL,TI,"shell < TI > < 5 section points > : SNEG, (fraction = -1.0)",69.8447
C:/Users/srbb21/AppData/Local/Temp/rx18_gr30001521653382.841.odb,RELAX,Increment    105: Step Time =    1.000,SHELL-1,81,-12.45,-4.75,12.9975,ASSEMBLY_SHELL-1_ALLEL,TI,"shell < TI > < 5 section points > : SPOS, (fraction = 1.0)",65.6447
C:/Users/srbb21/AppData/Local/Temp/rx18_gr30001521653382.841.odb,RELAX,Increment    105: Step Time =    1.000,SHELL-1,82,-12.45,-4.25,12.9975,ASSEMBLY_SHELL-1_ALLEL,TI,"shell < TI > < 5 section points > : SPOS, (fraction = 1.0)",64.2119
C:/Users/srbb21/AppData/Local/Temp/rx18_gr30001521653382.841.odb,RELAX,Increment    105: Step Time =    1.000,SHELL-1,82,-12.45,-4.25,12.9975,ASSEMBLY_SHELL-1_ALLEL,TI,"shell < TI > < 5 section points > : SNEG, (fraction = -1.0)",71.8315
C:/Users/srbb21/AppData/Local/Temp/rx18_gr30001521653382.841.odb,RELAX,Increment    105: Step Time =    1.000,SHELL-1,83,-12.45,-3.75,12.9975,ASSEMBLY_SHELL-1_ALLEL,TI,"shell < TI > < 5 section points > : SPOS, (fraction = 1.0)",62.8273
C:/Users/srbb21/AppData/Local/Temp/rx18_gr30001521653382.841.odb,RELAX,Increment    105: Step Time =    1.000,SHELL-1,83,-12.45,-3.75,12.9975,ASSEMBLY_SHELL-1_ALLEL,TI,"shell < TI > < 5 section points > : SNEG, (fraction = -1.0)",73.1644
C:/Users/srbb21/AppData/Local/Temp/rx18_gr30001521653382.841.odb,RELAX,Increment    105: Step Time =    1.000,SHELL-1,84,-12.45,-3.25,12.9975,ASSEMBLY_SHELL-1_ALLEL,TI,"shell < TI > < 5 section points > : SPOS, (fraction = 1.0)",61.5844
C:/Users/srbb21/AppData/Local/Temp/rx18_gr30001521653382.841.odb,RELAX,Increment    105: Step Time =    1.000,SHELL-1,84,-12.45,-3.25,12.9975,ASSEMBLY_SHELL-1_ALLEL,TI,"shell < TI > < 5 section points > : SNEG, (fraction = -1.0)",73.9886
C:/Users/srbb21/AppData/Local/Temp/rx18_gr30001521653382.841.odb,RELAX,Increment    105: Step Time =    1.000,SHELL-1,85,-12.45,-2.75,12.9975,ASSEMBLY_SHELL-1_ALLEL,TI,"shell < TI > < 5 section points > : SNEG, (fraction = -1.0)",74.4442
C:/Users/srbb21/AppData/Local/Temp/rx18_gr30001521653382.841.odb,RELAX,Increment    105: Step Time =    1.000,SHELL-1,85,-12.45,-2.75,12.9975,ASSEMBLY_SHELL-1_ALLEL,TI,"shell < TI > < 5 section points > : SPOS, (fraction = 1.0)",60.5291
C:/Users/srbb21/AppData/Local/Temp/rx18_gr30001521653382.841.odb,RELAX,Increment    105: Step Time =    1.000,SHELL-1,86,-12.45,-2.25,12.9975,ASSEMBLY_SHELL-1_ALLEL,TI,"shell < TI > < 5 section points > : SPOS, (fraction = 1.0)",59.6793
C:/Users/srbb21/AppData/Local/Temp/rx18_gr30001521653382.841.odb,RELAX,Increment    105: Step Time =    1.000,SHELL-1,86,-12.45,-2.25,12.9975,ASSEMBLY_SHELL-1_ALLEL,TI,"shell < TI > < 5 section points > : SNEG, (fraction = -1.0)",74.6502
C:/Users/srbb21/AppData/Local/Temp/rx18_gr30001521653382.841.odb,RELAX,Increment    105: Step Time =    1.000,SHELL-1,87,-12.45,-1.75,12.9975,ASSEMBLY_SHELL-1_ALLEL,TI,"shell < TI > < 5 section points > : SPOS, (fraction = 1.0)",59.0286
C:/Users/srbb21/AppData/Local/Temp/rx18_gr30001521653382.841.odb,RELAX,Increment    105: Step Time =    1.000,SHELL-1,87,-12.45,-1.75,12.9975,ASSEMBLY_SHELL-1_ALLEL,TI,"shell < TI > < 5 section points > : SNEG, (fraction = -1.0)",74.7059
C:/Users/srbb21/AppData/Local/Temp/rx18_gr30001521653382.841.odb,RELAX,Increment    105: Step Time =    1.000,SHELL-1,88,-12.45,-1.25,12.9975,ASSEMBLY_SHELL-1_ALLEL,TI,"shell < TI > < 5 section points > : SPOS, (fraction = 1.0)",58.5639
C:/Users/srbb21/AppData/Local/Temp/rx18_gr30001521653382.841.odb,RELAX,Increment    105: Step Time =    1.000,SHELL-1,88,-12.45,-1.25,12.9975,ASSEMBLY_SHELL-1_ALLEL,TI,"shell < TI > < 5 section points > : SNEG, (fraction = -1.0)",74.6852
C:/Users/srbb21/AppData/Local/Temp/rx18_gr30001521653382.841.odb,RELAX,Increment    105: Step Time =    1.000,SHELL-1,89,-12.45,-0.75,12.9975,ASSEMBLY_SHELL-1_ALLEL,TI,"shell < TI > < 5 section points > : SPOS, (fraction = 1.0)",58.2661
C:/Users/srbb21/AppData/Local/Temp/rx18_gr30001521653382.841.odb,RELAX,Increment    105: Step Time =    1.000,SHELL-1,89,-12.45,-0.75,12.9975,ASSEMBLY_SHELL-1_ALLEL,TI,"shell < TI > < 5 section points > : SNEG, (fraction = -1.0)",74.643
C:/Users/srbb21/AppData/Local/Temp/rx18_gr30001521653382.841.odb,RELAX,Increment    105: Step Time =    1.000,SHELL-1,90,-12.45,-0.25,12.9975,ASSEMBLY_SHELL-1_ALLEL,TI,"shell < TI > < 5 section points > : SNEG, (fraction = -1.0)",74.6133
C:/Users/srbb21/AppData/Local/Temp/rx18_gr30001521653382.841.odb,RELAX,Increment    105: Step Time =    1.000,SHELL-1,90,-12.45,-0.25,12.9975,ASSEMBLY_SHELL-1_ALLEL,TI,"shell < TI > < 5 section points > : SPOS, (fraction = 1.0)",58.1216
C:/Users/srbb21/AppData/Local/Temp/rx18_gr30001521653382.841.odb,RELAX,Increment    105: Step Time =    1.000,SHELL-1,91,-12.45,0.25,12.9975,ASSEMBLY_SHELL-1_ALLEL,TI,"shell < TI > < 5 section points > : SPOS, (fraction = 1.0)",58.1216
C:/Users/srbb21/AppData/Local/Temp/rx18_gr30001521653382.841.odb,RELAX,Increment    105: Step Time =    1.000,SHELL-1,91,-12.45,0.25,12.9975,ASSEMBLY_SHELL-1_ALLEL,TI,"shell < TI > < 5 section points > : SNEG, (fraction = -1.0)",74.6133
C:/Users/srbb21/AppData/Local/Temp/rx18_gr30001521653382.841.odb,RELAX,Increment    105: Step Time =    1.000,SHELL-1,92,-12.45,0.75,12.9975,ASSEMBLY_SHELL-1_ALLEL,TI,"shell < TI > < 5 section points > : SPOS, (fraction = 1.0)",58.2661
C:/Users/srbb21/AppData/Local/Temp/rx18_gr30001521653382.841.odb,RELAX,Increment    105: Step Time =    1.000,SHELL-1,92,-12.45,0.75,12.9975,ASSEMBLY_SHELL-1_ALLEL,TI,"shell < TI > < 5 section points > : SNEG, (fraction = -1.0)",74.643
C:/Users/srbb21/AppData/Local/Temp/rx18_gr30001521653382.841.odb,RELAX,Increment    105: Step Time =    1.000,SHELL-1,93,-12.45,1.25,12.9975,ASSEMBLY_SHELL-1_ALLEL,TI,"shell < TI > < 5 section points > : SPOS, (fraction = 1.0)",58.5639
C:/Users/srbb21/AppData/Local/Temp/rx18_gr30001521653382.841.odb,RELAX,Increment    105: Step Time =    1.000,SHELL-1,93,-12.45,1.25,12.9975,ASSEMBLY_SHELL-1_ALLEL,TI,"shell < TI > < 5 section points > : SNEG, (fraction = -1.0)",74.6852
C:/Users/srbb21/AppData/Local/Temp/rx18_gr30001521653382.841.odb,RELAX,Increment    105: Step Time =    1.000,SHELL-1,94,-12.45,1.75,12.9975,ASSEMBLY_SHELL-1_ALLEL,TI,"shell < TI > < 5 section points > : SNEG, (fraction = -1.0)",74.7059
C:/Users/srbb21/AppData/Local/Temp/rx18_gr30001521653382.841.odb,RELAX,Increment    105: Step Time =    1.000,SHELL-1,94,-12.45,1.75,12.9975,ASSEMBLY_SHELL-1_ALLEL,TI,"shell < TI > < 5 section points > : SPOS, (fraction = 1.0)",59.0286
C:/Users/srbb21/AppData/Local/Temp/rx18_gr30001521653382.841.odb,RELAX,Increment    105: Step Time =    1.000,SHELL-1,95,-12.45,2.25,12.9975,ASSEMBLY_SHELL-1_ALLEL,TI,"shell < TI > < 5 section points > : SPOS, (fraction = 1.0)",59.6793
C:/Users/srbb21/AppData/Local/Temp/rx18_gr30001521653382.841.odb,RELAX,Increment    105: Step Time =    1.000,SHELL-1,95,-12.45,2.25,12.9975,ASSEMBLY_SHELL-1_ALLEL,TI,"shell < TI > < 5 section points > : SNEG, (fraction = -1.0)",74.6502
C:/Users/srbb21/AppData/Local/Temp/rx18_gr30001521653382.841.odb,RELAX,Increment    105: Step Time =    1.000,SHELL-1,96,-12.45,2.75,12.9975,ASSEMBLY_SHELL-1_ALLEL,TI,"shell < TI > < 5 section points > : SPOS, (fraction = 1.0)",60.5291
C:/Users/srbb21/AppData/Local/Temp/rx18_gr30001521653382.841.odb,RELAX,Increment    105: Step Time =    1.000,SHELL-1,96,-12.45,2.75,12.9975,ASSEMBLY_SHELL-1_ALLEL,TI,"shell < TI > < 5 section points > : SNEG, (fraction = -1.0)",74.4442
C:/Users/srbb21/AppData/Local/Temp/rx18_gr30001521653382.841.odb,RELAX,Increment    105: Step Time =    1.000,SHELL-1,97,-12.45,3.25,12.9975,ASSEMBLY_SHELL-1_ALLEL,TI,"shell < TI > < 5 section points > : SPOS, (fraction = 1.0)",61.5844
C:/Users/srbb21/AppData/Local/Temp/rx18_gr30001521653382.841.odb,RELAX,Increment    105: Step Time =    1.000,SHELL-1,97,-12.45,3.25,12.9975,ASSEMBLY_SHELL-1_ALLEL,TI,"shell < TI > < 5 section points > : SNEG, (fraction = -1.0)",73.9886
C:/Users/srbb21/AppData/Local/Temp/rx18_gr30001521653382.841.odb,RELAX,Increment    105: Step Time =    1.000,SHELL-1,98,-12.45,3.75,12.9975,ASSEMBLY_SHELL-1_ALLEL,TI,"shell < TI > < 5 section points > : SNEG, (fraction = -1.0)",73.1644
C:/Users/srbb21/AppData/Local/Temp/rx18_gr30001521653382.841.odb,RELAX,Increment    105: Step Time =    1.000,SHELL-1,98,-12.45,3.75,12.9975,ASSEMBLY_SHELL-1_ALLEL,TI,"shell < TI > < 5 section points > : SPOS, (fraction = 1.0)",62.8273
C:/Users/srbb21/AppData/Local/Temp/rx18_gr30001521653382.841.odb,RELAX,Increment    105: Step Time =    1.000,SHELL-1,99,-12.45,4.25,12.9975,ASSEMBLY_SHELL-1_ALLEL,TI,"shell < TI > < 5 section points > : SPOS, (fraction = 1.0)",64.2119
C:/Users/srbb21/AppData/Local/Temp/rx18_gr30001521653382.841.odb,RELAX,Increment    105: Step Time =    1.000,SHELL-1,99,-12.45,4.25,12.9975,ASSEMBLY_SHELL-1_ALLEL,TI,"shell < TI > < 5 section points > : SNEG, (fraction = -1.0)",71.8315
C:/Users/srbb21/AppData/Local/Temp/rx18_gr30001521653382.841.odb,RELAX,Increment    105: Step Time =    1.000,SHELL-1,100,-12.45,4.75,12.9975,ASSEMBLY_SHELL-1_ALLEL,TI,"shell < TI > < 5 section points > : SPOS, (fraction = 1.0)",65.6447
C:/Users/srbb21/AppData/Local/Temp/rx18_gr30001521653382.841.odb,RELAX,Increment    105: Step Time =    1.000,SHELL-1,100,-12.45,4.75,12.9975,ASSEMBLY_SHELL-1_ALLEL,TI,"shell < TI > < 5 section points > : SNEG, (fraction = -1.0)",69.8447
C:/Users/srbb21/AppData/Local/Temp/rx18_gr30001521653382.841.odb,RELAX,Increment    105: Step Time =    1.000,SHELL-1,101,-12.45,5.25,12.9975,ASSEMBLY_SHELL-1_ALLEL,TI,"shell < TI > < 5 section points > : SPOS, (fraction = 1.0)",66.9704
C:/Users/srbb21/AppData/Local/Temp/rx18_gr30001521653382.841.odb,RELAX,Increment    105: Step Time =    1.000,SHELL-1,101,-12.45,5.25,12.9975,ASSEMBLY_SHELL-1_ALLEL,TI,"shell < TI > < 5 section points > : SNEG, (fraction = -1.0)",67.0785
C:/Users/srbb21/AppData/Local/Temp/rx18_gr30001521653382.841.odb,RELAX,Increment    105: Step Time =    1.000,SHELL-1,102,-12.45,5.75,12.9975,ASSEMBLY_SHELL-1_ALLEL,TI,"shell < TI > < 5 section points > : SNEG, (fraction = -1.0)",63.4738
C:/Users/srbb21/AppData/Local/Temp/rx18_gr30001521653382.841.odb,RELAX,Increment    105: Step Time =    1.000,SHELL-1,102,-12.45,5.75,12.9975,ASSEMBLY_SHELL-1_ALLEL,TI,"shell < TI > < 5 section points > : SPOS, (fraction = 1.0)",67.9689
C:/Users/srbb21/AppData/Local/Temp/rx18_gr30001521653382.841.odb,RELAX,Increment    105: Step Time =    1.000,SHELL-1,103,-12.45,6.25,12.9975,ASSEMBLY_SHELL-1_ALLEL,TI,"shell < TI > < 5 section points > : SPOS, (fraction = 1.0)",68.3027
C:/Users/srbb21/AppData/Local/Temp/rx18_gr30001521653382.841.odb,RELAX,Increment    105: Step Time =    1.000,SHELL-1,103,-12.45,6.25,12.9975,ASSEMBLY_SHELL-1_ALLEL,TI,"shell < TI > < 5 section points > : SNEG, (fraction = -1.0)",59.1339
C:/Users/srbb21/AppData/Local/Temp/rx18_gr30001521653382.841.odb,RELAX,Increment    105: Step Time =    1.000,SHELL-1,104,-12.45,6.75,12.9975,ASSEMBLY_SHELL-1_ALLEL,TI,"shell < TI > < 5 section points > : SPOS, (fraction = 1.0)",67.5953
C:/Users/srbb21/AppData/Local/Temp/rx18_gr30001521653382.841.odb,RELAX,Increment    105: Step Time =    1.000,SHELL-1,104,-12.45,6.75,12.9975,ASSEMBLY_SHELL-1_ALLEL,TI,"shell < TI > < 5 section points > : SNEG, (fraction = -1.0)",54.3643
C:/Users/srbb21/AppData/Local/Temp/rx18_gr30001521653382.841.odb,RELAX,Increment    105: Step Time =    1.000,SHELL-1,105,-12.45,7.25,12.9975,ASSEMBLY_SHELL-1_ALLEL,TI,"shell < TI > < 5 section points > : SPOS, (fraction = 1.0)",65.3187
C:/Users/srbb21/AppData/Local/Temp/rx18_gr30001521653382.841.odb,RELAX,Increment    105: Step Time =    1.000,SHELL-1,105,-12.45,7.25,12.9975,ASSEMBLY_SHELL-1_ALLEL,TI,"shell < TI > < 5 section points > : SNEG, (fraction = -1.0)",49.6787
C:/Users/srbb21/AppData/Local/Temp/rx18_gr30001521653382.841.odb,RELAX,Increment    105: Step Time =    1.000,SHELL-1,106,-12.45,7.75,12.9975,ASSEMBLY_SHELL-1_ALLEL,TI,"shell < TI > < 5 section points > : SPOS, (fraction = 1.0)",61.378
C:/Users/srbb21/AppData/Local/Temp/rx18_gr30001521653382.841.odb,RELAX,Increment    105: Step Time =    1.000,SHELL-1,106,-12.45,7.75,12.9975,ASSEMBLY_SHELL-1_ALLEL,TI,"shell < TI > < 5 section points > : SNEG, (fraction = -1.0)",44.8475
C:/Users/srbb21/AppData/Local/Temp/rx18_gr30001521653382.841.odb,RELAX,Increment    105: Step Time =    1.000,SHELL-1,107,-12.45,8.25,12.9975,ASSEMBLY_SHELL-1_ALLEL,TI,"shell < TI > < 5 section points > : SNEG, (fraction = -1.0)",37.4804
C:/Users/srbb21/AppData/Local/Temp/rx18_gr30001521653382.841.odb,RELAX,Increment    105: Step Time =    1.000,SHELL-1,107,-12.45,8.25,12.9975,ASSEMBLY_SHELL-1_ALLEL,TI,"shell < TI > < 5 section points > : SPOS, (fraction = 1.0)",57.6684
C:/Users/srbb21/AppData/Local/Temp/rx18_gr30001521653382.841.odb,RELAX,Increment    105: Step Time =    1.000,SHELL-1,108,-12.45,8.75,12.9975,ASSEMBLY_SHELL-1_ALLEL,TI,"shell < TI > < 5 section points > : SPOS, (fraction = 1.0)",63.4714
C:/Users/srbb21/AppData/Local/Temp/rx18_gr30001521653382.841.odb,RELAX,Increment    105: Step Time =    1.000,SHELL-1,108,-12.45,8.75,12.9975,ASSEMBLY_SHELL-1_ALLEL,TI,"shell < TI > < 5 section points > : SNEG, (fraction = -1.0)",21.2265
C:/Users/srbb21/AppData/Local/Temp/rx18_gr30001521653382.841.odb,RELAX,Increment    105: Step Time =    1.000,SHELL-1,109,-12.0842,-8.75,13.3382,ASSEMBLY_SHELL-1_ALLEL,TI,"shell < TI > < 5 section points > : SPOS, (fraction = 1.0)",87.8309
C:/Users/srbb21/AppData/Local/Temp/rx18_gr30001521653382.841.odb,RELAX,Increment    105: Step Time =    1.000,SHELL-1,109,-12.0842,-8.75,13.3382,ASSEMBLY_SHELL-1_ALLEL,TI,"shell < TI > < 5 section points > : SNEG, (fraction = -1.0)",30.1173
C:/Users/srbb21/AppData/Local/Temp/rx18_gr30001521653382.841.odb,RELAX,Increment    105: Step Time =    1.000,SHELL-1,110,-12.0842,-8.25,13.3382,ASSEMBLY_SHELL-1_ALLEL,TI,"shell < TI > < 5 section points > : SPOS, (fraction = 1.0)",74.669
C:/Users/srbb21/AppData/Local/Temp/rx18_gr30001521653382.841.odb,RELAX,Increment    105: Step Time =    1.000,SHELL-1,110,-12.0842,-8.25,13.3382,ASSEMBLY_SHELL-1_ALLEL,TI,"shell < TI > < 5 section points > : SNEG, (fraction = -1.0)",48.4681
C:/Users/srbb21/AppData/Local/Temp/rx18_gr30001521653382.841.odb,RELAX,Increment    105: Step Time =    1.000,SHELL-1,111,-12.0842,-7.75,13.3382,ASSEMBLY_SHELL-1_ALLEL,TI,"shell < TI > < 5 section points > : SNEG, (fraction = -1.0)",57.6321
C:/Users/srbb21/AppData/Local/Temp/rx18_gr30001521653382.841.odb,RELAX,Increment    105: Step Time =    1.000,SHELL-1,111,-12.0842,-7.75,13.3382,ASSEMBLY_SHELL-1_ALLEL,TI,"shell < TI > < 5 section points > : SPOS, (fraction = 1.0)",74.2167
C:/Users/srbb21/AppData/Local/Temp/rx18_gr30001521653382.841.odb,RELAX,Increment    105: Step Time =    1.000,SHELL-1,112,-12.0842,-7.25,13.3382,ASSEMBLY_SHELL-1_ALLEL,TI,"shell < TI > < 5 section points > : SPOS, (fraction = 1.0)",77.6305
C:/Users/srbb21/AppData/Local/Temp/rx18_gr30001521653382.841.odb,RELAX,Increment    105: Step Time =    1.000,SHELL-1,112,-12.0842,-7.25,13.3382,ASSEMBLY_SHELL-1_ALLEL,TI,"shell < TI > < 5 section points > : SNEG, (fraction = -1.0)",62.1778
C:/Users/srbb21/AppData/Local/Temp/rx18_gr30001521653382.841.odb,RELAX,Increment    105: Step Time =    1.000,SHELL-1,113,-12.0842,-6.75,13.3382,ASSEMBLY_SHELL-1_ALLEL,TI,"shell < TI > < 5 section points > : SPOS, (fraction = 1.0)",81.0169
C:/Users/srbb21/AppData/Local/Temp/rx18_gr30001521653382.841.odb,RELAX,Increment    105: Step Time =    1.000,SHELL-1,113,-12.0842,-6.75,13.3382,ASSEMBLY_SHELL-1_ALLEL,TI,"shell < TI > < 5 section points > : SNEG, (fraction = -1.0)",64.8751
C:/Users/srbb21/AppData/Local/Temp/rx18_gr30001521653382.841.odb,RELAX,Increment    105: Step Time =    1.000,SHELL-1,114,-12.0842,-6.25,13.3382,ASSEMBLY_SHELL-1_ALLEL,TI,"shell < TI > < 5 section points > : SPOS, (fraction = 1.0)",83.3137
C:/Users/srbb21/AppData/Local/Temp/rx18_gr30001521653382.841.odb,RELAX,Increment    105: Step Time =    1.000,SHELL-1,114,-12.0842,-6.25,13.3382,ASSEMBLY_SHELL-1_ALLEL,TI,"shell < TI > < 5 section points > : SNEG, (fraction = -1.0)",66.944
C:/Users/srbb21/AppData/Local/Temp/rx18_gr30001521653382.841.odb,RELAX,Increment    105: Step Time =    1.000,SHELL-1,115,-12.0842,-5.75,13.3382,ASSEMBLY_SHELL-1_ALLEL,TI,"shell < TI > < 5 section points > : SNEG, (fraction = -1.0)",68.79
C:/Users/srbb21/AppData/Local/Temp/rx18_gr30001521653382.841.odb,RELAX,Increment    105: Step Time =    1.000,SHELL-1,115,-12.0842,-5.75,13.3382,ASSEMBLY_SHELL-1_ALLEL,TI,"shell < TI > < 5 section points > : SPOS, (fraction = 1.0)",84.4663
C:/Users/srbb21/AppData/Local/Temp/rx18_gr30001521653382.841.odb,RELAX,Increment    105: Step Time =    1.000,SHELL-1,116,-12.0842,-5.25,13.3382,ASSEMBLY_SHELL-1_ALLEL,TI,"shell < TI > < 5 section points > : SPOS, (fraction = 1.0)",84.7978
C:/Users/srbb21/AppData/Local/Temp/rx18_gr30001521653382.841.odb,RELAX,Increment    105: Step Time =    1.000,SHELL-1,116,-12.0842,-5.25,13.3382,ASSEMBLY_SHELL-1_ALLEL,TI,"shell < TI > < 5 section points > : SNEG, (fraction = -1.0)",70.4002
C:/Users/srbb21/AppData/Local/Temp/rx18_gr30001521653382.841.odb,RELAX,Increment    105: Step Time =    1.000,SHELL-1,117,-12.0842,-4.75,13.3382,ASSEMBLY_SHELL-1_ALLEL,TI,"shell < TI > < 5 section points > : SPOS, (fraction = 1.0)",84.5817
C:/Users/srbb21/AppData/Local/Temp/rx18_gr30001521653382.841.odb,RELAX,Increment    105: Step Time =    1.000,SHELL-1,117,-12.0842,-4.75,13.3382,ASSEMBLY_SHELL-1_ALLEL,TI,"shell < TI > < 5 section points > : SNEG, (fraction = -1.0)",71.7357
C:/Users/srbb21/AppData/Local/Temp/rx18_gr30001521653382.841.odb,RELAX,Increment    105: Step Time =    1.000,SHELL-1,118,-12.0842,-4.25,13.3382,ASSEMBLY_SHELL-1_ALLEL,TI,"shell < TI > < 5 section points > : SPOS, (fraction = 1.0)",84.08
C:/Users/srbb21/AppData/Local/Temp/rx18_gr30001521653382.841.odb,RELAX,Increment    105: Step Time =    1.000,SHELL-1,118,-12.0842,-4.25,13.3382,ASSEMBLY_SHELL-1_ALLEL,TI,"shell < TI > < 5 section points > : SNEG, (fraction = -1.0)",72.7603
C:/Users/srbb21/AppData/Local/Temp/rx18_gr30001521653382.841.odb,RELAX,Increment    105: Step Time =    1.000,SHELL-1,119,-12.0842,-3.75,13.3382,ASSEMBLY_SHELL-1_ALLEL,TI,"shell < TI > < 5 section points > : SNEG, (fraction = -1.0)",73.4909
C:/Users/srbb21/AppData/Local/Temp/rx18_gr30001521653382.841.odb,RELAX,Increment    105: Step Time =    1.000,SHELL-1,119,-12.0842,-3.75,13.3382,ASSEMBLY_SHELL-1_ALLEL,TI,"shell < TI > < 5 section points > : SPOS, (fraction = 1.0)",83.4616
C:/Users/srbb21/AppData/Local/Temp/rx18_gr30001521653382.841.odb,RELAX,Increment    105: Step Time =    1.000,SHELL-1,120,-12.0842,-3.25,13.3382,ASSEMBLY_SHELL-1_ALLEL,TI,"shell < TI > < 5 section points > : SPOS, (fraction = 1.0)",82.8445
C:/Users/srbb21/AppData/Local/Temp/rx18_gr30001521653382.841.odb,RELAX,Increment    105: Step Time =    1.000,SHELL-1,120,-12.0842,-3.25,13.3382,ASSEMBLY_SHELL-1_ALLEL,TI,"shell < TI > < 5 section points > : SNEG, (fraction = -1.0)",73.9661
C:/Users/srbb21/AppData/Local/Temp/rx18_gr30001521653382.841.odb,RELAX,Increment    105: Step Time =    1.000,SHELL-1,121,-12.0842,-2.75,13.3382,ASSEMBLY_SHELL-1_ALLEL,TI,"shell < TI > < 5 section points > : SPOS, (fraction = 1.0)",82.2931
C:/Users/srbb21/AppData/Local/Temp/rx18_gr30001521653382.841.odb,RELAX,Increment    105: Step Time =    1.000,SHELL-1,121,-12.0842,-2.75,13.3382,ASSEMBLY_SHELL-1_ALLEL,TI,"shell < TI > < 5 section points > : SNEG, (fraction = -1.0)",74.2414
C:/Users/srbb21/AppData/Local/Temp/rx18_gr30001521653382.841.odb,RELAX,Increment    105: Step Time =    1.000,SHELL-1,122,-12.0842,-2.25,13.3382,ASSEMBLY_SHELL-1_ALLEL,TI,"shell < TI > < 5 section points > : SPOS, (fraction = 1.0)",81.8375
C:/Users/srbb21/AppData/Local/Temp/rx18_gr30001521653382.841.odb,RELAX,Increment    105: Step Time =    1.000,SHELL-1,122,-12.0842,-2.25,13.3382,ASSEMBLY_SHELL-1_ALLEL,TI,"shell < TI > < 5 section points > : SNEG, (fraction = -1.0)",74.3736
C:/Users/srbb21/AppData/Local/Temp/rx18_gr30001521653382.841.odb,RELAX,Increment    105: Step Time =    1.000,SHELL-1,123,-12.0842,-1.75,13.3382,ASSEMBLY_SHELL-1_ALLEL,TI,"shell < TI > < 5 section points > : SPOS, (fraction = 1.0)",81.4867
C:/Users/srbb21/AppData/Local/Temp/rx18_gr30001521653382.841.odb,RELAX,Increment    105: Step Time =    1.000,SHELL-1,123,-12.0842,-1.75,13.3382,ASSEMBLY_SHELL-1_ALLEL,TI,"shell < TI > < 5 section points > : SNEG, (fraction = -1.0)",74.4141
C:/Users/srbb21/AppData/Local/Temp/rx18_gr30001521653382.841.odb,RELAX,Increment    105: Step Time =    1.000,SHELL-1,124,-12.0842,-1.25,13.3382,ASSEMBLY_SHELL-1_ALLEL,TI,"shell < TI > < 5 section points > : SNEG, (fraction = -1.0)",74.4067
C:/Users/srbb21/AppData/Local/Temp/rx18_gr30001521653382.841.odb,RELAX,Increment    105: Step Time =    1.000,SHELL-1,124,-12.0842,-1.25,13.3382,ASSEMBLY_SHELL-1_ALLEL,TI,"shell < TI > < 5 section points > : SPOS, (fraction = 1.0)",81.2354
C:/Users/srbb21/AppData/Local/Temp/rx18_gr30001521653382.841.odb,RELAX,Increment    105: Step Time =    1.000,SHELL-1,125,-12.0842,-0.75,13.3382,ASSEMBLY_SHELL-1_ALLEL,TI,"shell < TI > < 5 section points > : SPOS, (fraction = 1.0)",81.0756
C:/Users/srbb21/AppData/Local/Temp/rx18_gr30001521653382.841.odb,RELAX,Increment    105: Step Time =    1.000,SHELL-1,125,-12.0842,-0.75,13.3382,ASSEMBLY_SHELL-1_ALLEL,TI,"shell < TI > < 5 section points > : SNEG, (fraction = -1.0)",74.3836
C:/Users/srbb21/AppData/Local/Temp/rx18_gr30001521653382.841.odb,RELAX,Increment    105: Step Time =    1.000,SHELL-1,126,-12.0842,-0.25,13.3382,ASSEMBLY_SHELL-1_ALLEL,TI,"shell < TI > < 5 section points > : SPOS, (fraction = 1.0)",80.9981
C:/Users/srbb21/AppData/Local/Temp/rx18_gr30001521653382.841.odb,RELAX,Increment    105: Step Time =    1.000,SHELL-1,126,-12.0842,-0.25,13.3382,ASSEMBLY_SHELL-1_ALLEL,TI,"shell < TI > < 5 section points > : SNEG, (fraction = -1.0)",74.3667
C:/Users/srbb21/AppData/Local/Temp/rx18_gr30001521653382.841.odb,RELAX,Increment    105: Step Time =    1.000,SHELL-1,127,-12.0842,0.25,13.3382,ASSEMBLY_SHELL-1_ALLEL,TI,"shell < TI > < 5 section points > : SPOS, (fraction = 1.0)",80.9981
C:/Users/srbb21/AppData/Local/Temp/rx18_gr30001521653382.841.odb,RELAX,Increment    105: Step Time =    1.000,SHELL-1,127,-12.0842,0.25,13.3382,ASSEMBLY_SHELL-1_ALLEL,TI,"shell < TI > < 5 section points > : SNEG, (fraction = -1.0)",74.3667
C:/Users/srbb21/AppData/Local/Temp/rx18_gr30001521653382.841.odb,RELAX,Increment    105: Step Time =    1.000,SHELL-1,128,-12.0842,0.75,13.3382,ASSEMBLY_SHELL-1_ALLEL,TI,"shell < TI > < 5 section points > : SNEG, (fraction = -1.0)",74.3836
C:/Users/srbb21/AppData/Local/Temp/rx18_gr30001521653382.841.odb,RELAX,Increment    105: Step Time =    1.000,SHELL-1,128,-12.0842,0.75,13.3382,ASSEMBLY_SHELL-1_ALLEL,TI,"shell < TI > < 5 section points > : SPOS, (fraction = 1.0)",81.0756
C:/Users/srbb21/AppData/Local/Temp/rx18_gr30001521653382.841.odb,RELAX,Increment    105: Step Time =    1.000,SHELL-1,129,-12.0842,1.25,13.3382,ASSEMBLY_SHELL-1_ALLEL,TI,"shell < TI > < 5 section points > : SPOS, (fraction = 1.0)",81.2354
C:/Users/srbb21/AppData/Local/Temp/rx18_gr30001521653382.841.odb,RELAX,Increment    105: Step Time =    1.000,SHELL-1,129,-12.0842,1.25,13.3382,ASSEMBLY_SHELL-1_ALLEL,TI,"shell < TI > < 5 section points > : SNEG, (fraction = -1.0)",74.4067
C:/Users/srbb21/AppData/Local/Temp/rx18_gr30001521653382.841.odb,RELAX,Increment    105: Step Time =    1.000,SHELL-1,130,-12.0842,1.75,13.3382,ASSEMBLY_SHELL-1_ALLEL,TI,"shell < TI > < 5 section points > : SPOS, (fraction = 1.0)",81.4867
C:/Users/srbb21/AppData/Local/Temp/rx18_gr30001521653382.841.odb,RELAX,Increment    105: Step Time =    1.000,SHELL-1,130,-12.0842,1.75,13.3382,ASSEMBLY_SHELL-1_ALLEL,TI,"shell < TI > < 5 section points > : SNEG, (fraction = -1.0)",74.4141
C:/Users/srbb21/AppData/Local/Temp/rx18_gr30001521653382.841.odb,RELAX,Increment    105: Step Time =    1.000,SHELL-1,131,-12.0842,2.25,13.3382,ASSEMBLY_SHELL-1_ALLEL,TI,"shell < TI > < 5 section points > : SPOS, (fraction = 1.0)",81.8375
C:/Users/srbb21/AppData/Local/Temp/rx18_gr30001521653382.841.odb,RELAX,Increment    105: Step Time =    1.000,SHELL-1,131,-12.0842,2.25,13.3382,ASSEMBLY_SHELL-1_ALLEL,TI,"shell < TI > < 5 section points > : SNEG, (fraction = -1.0)",74.3736
C:/Users/srbb21/AppData/Local/Temp/rx18_gr30001521653382.841.odb,RELAX,Increment    105: Step Time =    1.000,SHELL-1,132,-12.0842,2.75,13.3382,ASSEMBLY_SHELL-1_ALLEL,TI,"shell < TI > < 5 section points > : SNEG, (fraction = -1.0)",74.2414
C:/Users/srbb21/AppData/Local/Temp/rx18_gr30001521653382.841.odb,RELAX,Increment    105: Step Time =    1.000,SHELL-1,132,-12.0842,2.75,13.3382,ASSEMBLY_SHELL-1_ALLEL,TI,"shell < TI > < 5 section points > : SPOS, (fraction = 1.0)",82.2931
C:/Users/srbb21/AppData/Local/Temp/rx18_gr30001521653382.841.odb,RELAX,Increment    105: Step Time =    1.000,SHELL-1,133,-12.0842,3.25,13.3382,ASSEMBLY_SHELL-1_ALLEL,TI,"shell < TI > < 5 section points > : SPOS, (fraction = 1.0)",82.8445
C:/Users/srbb21/AppData/Local/Temp/rx18_gr30001521653382.841.odb,RELAX,Increment    105: Step Time =    1.000,SHELL-1,133,-12.0842,3.25,13.3382,ASSEMBLY_SHELL-1_ALLEL,TI,"shell < TI > < 5 section points > : SNEG, (fraction = -1.0)",73.9661
C:/Users/srbb21/AppData/Local/Temp/rx18_gr30001521653382.841.odb,RELAX,Increment    105: Step Time =    1.000,SHELL-1,134,-12.0842,3.75,13.3382,ASSEMBLY_SHELL-1_ALLEL,TI,"shell < TI > < 5 section points > : SPOS, (fraction = 1.0)",83.4616
C:/Users/srbb21/AppData/Local/Temp/rx18_gr30001521653382.841.odb,RELAX,Increment    105: Step Time =    1.000,SHELL-1,134,-12.0842,3.75,13.3382,ASSEMBLY_SHELL-1_ALLEL,TI,"shell < TI > < 5 section points > : SNEG, (fraction = -1.0)",73.4909
C:/Users/srbb21/AppData/Local/Temp/rx18_gr30001521653382.841.odb,RELAX,Increment    105: Step Time =    1.000,SHELL-1,135,-12.0842,4.25,13.3382,ASSEMBLY_SHELL-1_ALLEL,TI,"shell < TI > < 5 section points > : SPOS, (fraction = 1.0)",84.08
C:/Users/srbb21/AppData/Local/Temp/rx18_gr30001521653382.841.odb,RELAX,Increment    105: Step Time =    1.000,SHELL-1,135,-12.0842,4.25,13.3382,ASSEMBLY_SHELL-1_ALLEL,TI,"shell < TI > < 5 section points > : SNEG, (fraction = -1.0)",72.7603
C:/Users/srbb21/AppData/Local/Temp/rx18_gr30001521653382.841.odb,RELAX,Increment    105: Step Time =    1.000,SHELL-1,136,-12.0842,4.75,13.3382,ASSEMBLY_SHELL-1_ALLEL,TI,"shell < TI > < 5 section points > : SNEG, (fraction = -1.0)",71.7357
C:/Users/srbb21/AppData/Local/Temp/rx18_gr30001521653382.841.odb,RELAX,Increment    105: Step Time =    1.000,SHELL-1,136,-12.0842,4.75,13.3382,ASSEMBLY_SHELL-1_ALLEL,TI,"shell < TI > < 5 section points > : SPOS, (fraction = 1.0)",84.5817
C:/Users/srbb21/AppData/Local/Temp/rx18_gr30001521653382.841.odb,RELAX,Increment    105: Step Time =    1.000,SHELL-1,137,-12.0842,5.25,13.3382,ASSEMBLY_SHELL-1_ALLEL,TI,"shell < TI > < 5 section points > : SPOS, (fraction = 1.0)",84.7978
C:/Users/srbb21/AppData/Local/Temp/rx18_gr30001521653382.841.odb,RELAX,Increment    105: Step Time =    1.000,SHELL-1,137,-12.0842,5.25,13.3382,ASSEMBLY_SHELL-1_ALLEL,TI,"shell < TI > < 5 section points > : SNEG, (fraction = -1.0)",70.4002
C:/Users/srbb21/AppData/Local/Temp/rx18_gr30001521653382.841.odb,RELAX,Increment    105: Step Time =    1.000,SHELL-1,138,-12.0842,5.75,13.3382,ASSEMBLY_SHELL-1_ALLEL,TI,"shell < TI > < 5 section points > : SPOS, (fraction = 1.0)",84.4663
C:/Users/srbb21/AppData/Local/Temp/rx18_gr30001521653382.841.odb,RELAX,Increment    105: Step Time =    1.000,SHELL-1,138,-12.0842,5.75,13.3382,ASSEMBLY_SHELL-1_ALLEL,TI,"shell < TI > < 5 section points > : SNEG, (fraction = -1.0)",68.79
C:/Users/srbb21/AppData/Local/Temp/rx18_gr30001521653382.841.odb,RELAX,Increment    105: Step Time =    1.000,SHELL-1,139,-12.0842,6.25,13.3382,ASSEMBLY_SHELL-1_ALLEL,TI,"shell < TI > < 5 section points > : SPOS, (fraction = 1.0)",83.3137
C:/Users/srbb21/AppData/Local/Temp/rx18_gr30001521653382.841.odb,RELAX,Increment    105: Step Time =    1.000,SHELL-1,139,-12.0842,6.25,13.3382,ASSEMBLY_SHELL-1_ALLEL,TI,"shell < TI > < 5 section points > : SNEG, (fraction = -1.0)",66.944
C:/Users/srbb21/AppData/Local/Temp/rx18_gr30001521653382.841.odb,RELAX,Increment    105: Step Time =    1.000,SHELL-1,140,-12.0842,6.75,13.3382,ASSEMBLY_SHELL-1_ALLEL,TI,"shell < TI > < 5 section points > : SPOS, (fraction = 1.0)",81.0169
C:/Users/srbb21/AppData/Local/Temp/rx18_gr30001521653382.841.odb,RELAX,Increment    105: Step Time =    1.000,SHELL-1,140,-12.0842,6.75,13.3382,ASSEMBLY_SHELL-1_ALLEL,TI,"shell < TI > < 5 section points > : SNEG, (fraction = -1.0)",64.8751
C:/Users/srbb21/AppData/Local/Temp/rx18_gr30001521653382.841.odb,RELAX,Increment    105: Step Time =    1.000,SHELL-1,141,-12.0842,7.25,13.3382,ASSEMBLY_SHELL-1_ALLEL,TI,"shell < TI > < 5 section points > : SNEG, (fraction = -1.0)",62.1778
C:/Users/srbb21/AppData/Local/Temp/rx18_gr30001521653382.841.odb,RELAX,Increment    105: Step Time =    1.000,SHELL-1,141,-12.0842,7.25,13.3382,ASSEMBLY_SHELL-1_ALLEL,TI,"shell < TI > < 5 section points > : SPOS, (fraction = 1.0)",77.6305
C:/Users/srbb21/AppData/Local/Temp/rx18_gr30001521653382.841.odb,RELAX,Increment    105: Step Time =    1.000,SHELL-1,142,-12.0842,7.75,13.3382,ASSEMBLY_SHELL-1_ALLEL,TI,"shell < TI > < 5 section points > : SPOS, (fraction = 1.0)",74.2167
C:/Users/srbb21/AppData/Local/Temp/rx18_gr30001521653382.841.odb,RELAX,Increment    105: Step Time =    1.000,SHELL-1,142,-12.0842,7.75,13.3382,ASSEMBLY_SHELL-1_ALLEL,TI,"shell < TI > < 5 section points > : SNEG, (fraction = -1.0)",57.6321
C:/Users/srbb21/AppData/Local/Temp/rx18_gr30001521653382.841.odb,RELAX,Increment    105: Step Time =    1.000,SHELL-1,143,-12.0842,8.25,13.3382,ASSEMBLY_SHELL-1_ALLEL,TI,"shell < TI > < 5 section points > : SPOS, (fraction = 1.0)",74.669
C:/Users/srbb21/AppData/Local/Temp/rx18_gr30001521653382.841.odb,RELAX,Increment    105: Step Time =    1.000,SHELL-1,143,-12.0842,8.25,13.3382,ASSEMBLY_SHELL-1_ALLEL,TI,"shell < TI > < 5 section points > : SNEG, (fraction = -1.0)",48.4681
C:/Users/srbb21/AppData/Local/Temp/rx18_gr30001521653382.841.odb,RELAX,Increment    105: Step Time =    1.000,SHELL-1,144,-12.0842,8.75,13.3382,ASSEMBLY_SHELL-1_ALLEL,TI,"shell < TI > < 5 section points > : SPOS, (fraction = 1.0)",87.8309
C:/Users/srbb21/AppData/Local/Temp/rx18_gr30001521653382.841.odb,RELAX,Increment    105: Step Time =    1.000,SHELL-1,144,-12.0842,8.75,13.3382,ASSEMBLY_SHELL-1_ALLEL,TI,"shell < TI > < 5 section points > : SNEG, (fraction = -1.0)",30.1173
C:/Users/srbb21/AppData/Local/Temp/rx18_gr30001521653382.841.odb,RELAX,Increment    105: Step Time =    1.000,SHELL-1,145,-11.7091,-8.75,13.6687,ASSEMBLY_SHELL-1_ALLEL,TI,"shell < TI > < 5 section points > : SNEG, (fraction = -1.0)",40.2264
C:/Users/srbb21/AppData/Local/Temp/rx18_gr30001521653382.841.odb,RELAX,Increment    105: Step Time =    1.000,SHELL-1,145,-11.7091,-8.75,13.6687,ASSEMBLY_SHELL-1_ALLEL,TI,"shell < TI > < 5 section points > : SPOS, (fraction = 1.0)",107.509
C:/Users/srbb21/AppData/Local/Temp/rx18_gr30001521653382.841.odb,RELAX,Increment    105: Step Time =    1.000,SHELL-1,146,-11.7091,-8.25,13.6687,ASSEMBLY_SHELL-1_ALLEL,TI,"shell < TI > < 5 section points > : SPOS, (fraction = 1.0)",91.0021
C:/Users/srbb21/AppData/Local/Temp/rx18_gr30001521653382.841.odb,RELAX,Increment    105: Step Time =    1.000,SHELL-1,146,-11.7091,-8.25,13.6687,ASSEMBLY_SHELL-1_ALLEL,TI,"shell < TI > < 5 section points > : SNEG, (fraction = -1.0)",59.2134
C:/Users/srbb21/AppData/Local/Temp/rx18_gr30001521653382.841.odb,RELAX,Increment    105: Step Time =    1.000,SHELL-1,147,-11.7091,-7.75,13.6687,ASSEMBLY_SHELL-1_ALLEL,TI,"shell < TI > < 5 section points > : SPOS, (fraction = 1.0)",86.2999
C:/Users/srbb21/AppData/Local/Temp/rx18_gr30001521653382.841.odb,RELAX,Increment    105: Step Time =    1.000,SHELL-1,147,-11.7091,-7.75,13.6687,ASSEMBLY_SHELL-1_ALLEL,TI,"shell < TI > < 5 section points > : SNEG, (fraction = -1.0)",69.9952
C:/Users/srbb21/AppData/Local/Temp/rx18_gr30001521653382.841.odb,RELAX,Increment    105: Step Time =    1.000,SHELL-1,148,-11.7091,-7.25,13.6687,ASSEMBLY_SHELL-1_ALLEL,TI,"shell < TI > < 5 section points > : SPOS, (fraction = 1.0)",87.6533
C:/Users/srbb21/AppData/Local/Temp/rx18_gr30001521653382.841.odb,RELAX,Increment    105: Step Time =    1.000,SHELL-1,148,-11.7091,-7.25,13.6687,ASSEMBLY_SHELL-1_ALLEL,TI,"shell < TI > < 5 section points > : SNEG, (fraction = -1.0)",75.6547
C:/Users/srbb21/AppData/Local/Temp/rx18_gr30001521653382.841.odb,RELAX,Increment    105: Step Time =    1.000,SHELL-1,149,-11.7091,-6.75,13.6687,ASSEMBLY_SHELL-1_ALLEL,TI,"shell < TI > < 5 section points > : SNEG, (fraction = -1.0)",78.5471
C:/Users/srbb21/AppData/Local/Temp/rx18_gr30001521653382.841.odb,RELAX,Increment    105: Step Time =    1.000,SHELL-1,149,-11.7091,-6.75,13.6687,ASSEMBLY_SHELL-1_ALLEL,TI,"shell < TI > < 5 section points > : SPOS, (fraction = 1.0)",90.7578
C:/Users/srbb21/AppData/Local/Temp/rx18_gr30001521653382.841.odb,RELAX,Increment    105: Step Time =    1.000,SHELL-1,150,-11.7091,-6.25,13.6687,ASSEMBLY_SHELL-1_ALLEL,TI,"shell < TI > < 5 section points > : SPOS, (fraction = 1.0)",93.7724
C:/Users/srbb21/AppData/Local/Temp/rx18_gr30001521653382.841.odb,RELAX,Increment    105: Step Time =    1.000,SHELL-1,150,-11.7091,-6.25,13.6687,ASSEMBLY_SHELL-1_ALLEL,TI,"shell < TI > < 5 section points > : SNEG, (fraction = -1.0)",80.1168
C:/Users/srbb21/AppData/Local/Temp/rx18_gr30001521653382.841.odb,RELAX,Increment    105: Step Time =    1.000,SHELL-1,151,-11.7091,-5.75,13.6687,ASSEMBLY_SHELL-1_ALLEL,TI,"shell < TI > < 5 section points > : SPOS, (fraction = 1.0)",96.0596
C:/Users/srbb21/AppData/Local/Temp/rx18_gr30001521653382.841.odb,RELAX,Increment    105: Step Time =    1.000,SHELL-1,151,-11.7091,-5.75,13.6687,ASSEMBLY_SHELL-1_ALLEL,TI,"shell < TI > < 5 section points > : SNEG, (fraction = -1.0)",81.0833
C:/Users/srbb21/AppData/Local/Temp/rx18_gr30001521653382.841.odb,RELAX,Increment    105: Step Time =    1.000,SHELL-1,152,-11.7091,-5.25,13.6687,ASSEMBLY_SHELL-1_ALLEL,TI,"shell < TI > < 5 section points > : SPOS, (fraction = 1.0)",97.5798
C:/Users/srbb21/AppData/Local/Temp/rx18_gr30001521653382.841.odb,RELAX,Increment    105: Step Time =    1.000,SHELL-1,152,-11.7091,-5.25,13.6687,ASSEMBLY_SHELL-1_ALLEL,TI,"shell < TI > < 5 section points > : SNEG, (fraction = -1.0)",81.7989
C:/Users/srbb21/AppData/Local/Temp/rx18_gr30001521653382.841.odb,RELAX,Increment    105: Step Time =    1.000,SHELL-1,153,-11.7091,-4.75,13.6687,ASSEMBLY_SHELL-1_ALLEL,TI,"shell < TI > < 5 section points > : SNEG, (fraction = -1.0)",82.359
C:/Users/srbb21/AppData/Local/Temp/rx18_gr30001521653382.841.odb,RELAX,Increment    105: Step Time =    1.000,SHELL-1,153,-11.7091,-4.75,13.6687,ASSEMBLY_SHELL-1_ALLEL,TI,"shell < TI > < 5 section points > : SPOS, (fraction = 1.0)",98.5039
C:/Users/srbb21/AppData/Local/Temp/rx18_gr30001521653382.841.odb,RELAX,Increment    105: Step Time =    1.000,SHELL-1,154,-11.7091,-4.25,13.6687,ASSEMBLY_SHELL-1_ALLEL,TI,"shell < TI > < 5 section points > : SPOS, (fraction = 1.0)",99.0092
C:/Users/srbb21/AppData/Local/Temp/rx18_gr30001521653382.841.odb,RELAX,Increment    105: Step Time =    1.000,SHELL-1,154,-11.7091,-4.25,13.6687,ASSEMBLY_SHELL-1_ALLEL,TI,"shell < TI > < 5 section points > : SNEG, (fraction = -1.0)",82.8092
C:/Users/srbb21/AppData/Local/Temp/rx18_gr30001521653382.841.odb,RELAX,Increment    105: Step Time =    1.000,SHELL-1,155,-11.7091,-3.75,13.6687,ASSEMBLY_SHELL-1_ALLEL,TI,"shell < TI > < 5 section points > : SPOS, (fraction = 1.0)",99.2617
C:/Users/srbb21/AppData/Local/Temp/rx18_gr30001521653382.841.odb,RELAX,Increment    105: Step Time =    1.000,SHELL-1,155,-11.7091,-3.75,13.6687,ASSEMBLY_SHELL-1_ALLEL,TI,"shell < TI > < 5 section points > : SNEG, (fraction = -1.0)",83.1479
C:/Users/srbb21/AppData/Local/Temp/rx18_gr30001521653382.841.odb,RELAX,Increment    105: Step Time =    1.000,SHELL-1,156,-11.7091,-3.25,13.6687,ASSEMBLY_SHELL-1_ALLEL,TI,"shell < TI > < 5 section points > : SPOS, (fraction = 1.0)",99.3711
C:/Users/srbb21/AppData/Local/Temp/rx18_gr30001521653382.841.odb,RELAX,Increment    105: Step Time =    1.000,SHELL-1,156,-11.7091,-3.25,13.6687,ASSEMBLY_SHELL-1_ALLEL,TI,"shell < TI > < 5 section points > : SNEG, (fraction = -1.0)",83.3876
C:/Users/srbb21/AppData/Local/Temp/rx18_gr30001521653382.841.odb,RELAX,Increment    105: Step Time =    1.000,SHELL-1,157,-11.7091,-2.75,13.6687,ASSEMBLY_SHELL-1_ALLEL,TI,"shell < TI > < 5 section points > : SPOS, (fraction = 1.0)",99.4129
C:/Users/srbb21/AppData/Local/Temp/rx18_gr30001521653382.841.odb,RELAX,Increment    105: Step Time =    1.000,SHELL-1,157,-11.7091,-2.75,13.6687,ASSEMBLY_SHELL-1_ALLEL,TI,"shell < TI > < 5 section points > : SNEG, (fraction = -1.0)",83.5383
C:/Users/srbb21/AppData/Local/Temp/rx18_gr30001521653382.841.odb,RELAX,Increment    105: Step Time =    1.000,SHELL-1,158,-11.7091,-2.25,13.6687,ASSEMBLY_SHELL-1_ALLEL,TI,"shell < TI > < 5 section points > : SNEG, (fraction = -1.0)",83.6203
C:/Users/srbb21/AppData/Local/Temp/rx18_gr30001521653382.841.odb,RELAX,Increment    105: Step Time =    1.000,SHELL-1,158,-11.7091,-2.25,13.6687,ASSEMBLY_SHELL-1_ALLEL,TI,"shell < TI > < 5 section points > : SPOS, (fraction = 1.0)",99.4273
C:/Users/srbb21/AppData/Local/Temp/rx18_gr30001521653382.841.odb,RELAX,Increment    105: Step Time =    1.000,SHELL-1,159,-11.7091,-1.75,13.6687,ASSEMBLY_SHELL-1_ALLEL,TI,"shell < TI > < 5 section points > : SPOS, (fraction = 1.0)",99.4344
C:/Users/srbb21/AppData/Local/Temp/rx18_gr30001521653382.841.odb,RELAX,Increment    105: Step Time =    1.000,SHELL-1,159,-11.7091,-1.75,13.6687,ASSEMBLY_SHELL-1_ALLEL,TI,"shell < TI > < 5 section points > : SNEG, (fraction = -1.0)",83.6535
C:/Users/srbb21/AppData/Local/Temp/rx18_gr30001521653382.841.odb,RELAX,Increment    105: Step Time =    1.000,SHELL-1,160,-11.7091,-1.25,13.6687,ASSEMBLY_SHELL-1_ALLEL,TI,"shell < TI > < 5 section points > : SPOS, (fraction = 1.0)",99.4411
C:/Users/srbb21/AppData/Local/Temp/rx18_gr30001521653382.841.odb,RELAX,Increment    105: Step Time =    1.000,SHELL-1,160,-11.7091,-1.25,13.6687,ASSEMBLY_SHELL-1_ALLEL,TI,"shell < TI > < 5 section points > : SNEG, (fraction = -1.0)",83.6585
C:/Users/srbb21/AppData/Local/Temp/rx18_gr30001521653382.841.odb,RELAX,Increment    105: Step Time =    1.000,SHELL-1,161,-11.7091,-0.75,13.6687,ASSEMBLY_SHELL-1_ALLEL,TI,"shell < TI > < 5 section points > : SPOS, (fraction = 1.0)",99.4473
C:/Users/srbb21/AppData/Local/Temp/rx18_gr30001521653382.841.odb,RELAX,Increment    105: Step Time =    1.000,SHELL-1,161,-11.7091,-0.75,13.6687,ASSEMBLY_SHELL-1_ALLEL,TI,"shell < TI > < 5 section points > : SNEG, (fraction = -1.0)",83.6518
C:/Users/srbb21/AppData/Local/Temp/rx18_gr30001521653382.841.odb,RELAX,Increment    105: Step Time =    1.000,SHELL-1,162,-11.7091,-0.25,13.6687,ASSEMBLY_SHELL-1_ALLEL,TI,"shell < TI > < 5 section points > : SNEG, (fraction = -1.0)",83.6454
C:/Users/srbb21/AppData/Local/Temp/rx18_gr30001521653382.841.odb,RELAX,Increment    105: Step Time =    1.000,SHELL-1,162,-11.7091,-0.25,13.6687,ASSEMBLY_SHELL-1_ALLEL,TI,"shell < TI > < 5 section points > : SPOS, (fraction = 1.0)",99.4513
C:/Users/srbb21/AppData/Local/Temp/rx18_gr30001521653382.841.odb,RELAX,Increment    105: Step Time =    1.000,SHELL-1,163,-11.7091,0.25,13.6687,ASSEMBLY_SHELL-1_ALLEL,TI,"shell < TI > < 5 section points > : SPOS, (fraction = 1.0)",99.4513
C:/Users/srbb21/AppData/Local/Temp/rx18_gr30001521653382.841.odb,RELAX,Increment    105: Step Time =    1.000,SHELL-1,163,-11.7091,0.25,13.6687,ASSEMBLY_SHELL-1_ALLEL,TI,"shell < TI > < 5 section points > : SNEG, (fraction = -1.0)",83.6454
C:/Users/srbb21/AppData/Local/Temp/rx18_gr30001521653382.841.odb,RELAX,Increment    105: Step Time =    1.000,SHELL-1,164,-11.7091,0.75,13.6687,ASSEMBLY_SHELL-1_ALLEL,TI,"shell < TI > < 5 section points > : SPOS, (fraction = 1.0)",99.4473
C:/Users/srbb21/AppData/Local/Temp/rx18_gr30001521653382.841.odb,RELAX,Increment    105: Step Time =    1.000,SHELL-1,164,-11.7091,0.75,13.6687,ASSEMBLY_SHELL-1_ALLEL,TI,"shell < TI > < 5 section points > : SNEG, (fraction = -1.0)",83.6518
C:/Users/srbb21/AppData/Local/Temp/rx18_gr30001521653382.841.odb,RELAX,Increment    105: Step Time =    1.000,SHELL-1,165,-11.7091,1.25,13.6687,ASSEMBLY_SHELL-1_ALLEL,TI,"shell < TI > < 5 section points > : SPOS, (fraction = 1.0)",99.4411
C:/Users/srbb21/AppData/Local/Temp/rx18_gr30001521653382.841.odb,RELAX,Increment    105: Step Time =    1.000,SHELL-1,165,-11.7091,1.25,13.6687,ASSEMBLY_SHELL-1_ALLEL,TI,"shell < TI > < 5 section points > : SNEG, (fraction = -1.0)",83.6585
C:/Users/srbb21/AppData/Local/Temp/rx18_gr30001521653382.841.odb,RELAX,Increment    105: Step Time =    1.000,SHELL-1,166,-11.7091,1.75,13.6687,ASSEMBLY_SHELL-1_ALLEL,TI,"shell < TI > < 5 section points > : SNEG, (fraction = -1.0)",83.6535
C:/Users/srbb21/AppData/Local/Temp/rx18_gr30001521653382.841.odb,RELAX,Increment    105: Step Time =    1.000,SHELL-1,166,-11.7091,1.75,13.6687,ASSEMBLY_SHELL-1_ALLEL,TI,"shell < TI > < 5 section points > : SPOS, (fraction = 1.0)",99.4344
C:/Users/srbb21/AppData/Local/Temp/rx18_gr30001521653382.841.odb,RELAX,Increment    105: Step Time =    1.000,SHELL-1,167,-11.7091,2.25,13.6687,ASSEMBLY_SHELL-1_ALLEL,TI,"shell < TI > < 5 section points > : SPOS, (fraction = 1.0)",99.4273
C:/Users/srbb21/AppData/Local/Temp/rx18_gr30001521653382.841.odb,RELAX,Increment    105: Step Time =    1.000,SHELL-1,167,-11.7091,2.25,13.6687,ASSEMBLY_SHELL-1_ALLEL,TI,"shell < TI > < 5 section points > : SNEG, (fraction = -1.0)",83.6203
C:/Users/srbb21/AppData/Local/Temp/rx18_gr30001521653382.841.odb,RELAX,Increment    105: Step Time =    1.000,SHELL-1,168,-11.7091,2.75,13.6687,ASSEMBLY_SHELL-1_ALLEL,TI,"shell < TI > < 5 section points > : SPOS, (fraction = 1.0)",99.4129
C:/Users/srbb21/AppData/Local/Temp/rx18_gr30001521653382.841.odb,RELAX,Increment    105: Step Time =    1.000,SHELL-1,168,-11.7091,2.75,13.6687,ASSEMBLY_SHELL-1_ALLEL,TI,"shell < TI > < 5 section points > : SNEG, (fraction = -1.0)",83.5383
C:/Users/srbb21/AppData/Local/Temp/rx18_gr30001521653382.841.odb,RELAX,Increment    105: Step Time =    1.000,SHELL-1,169,-11.7091,3.25,13.6687,ASSEMBLY_SHELL-1_ALLEL,TI,"shell < TI > < 5 section points > : SPOS, (fraction = 1.0)",99.3711
C:/Users/srbb21/AppData/Local/Temp/rx18_gr30001521653382.841.odb,RELAX,Increment    105: Step Time =    1.000,SHELL-1,169,-11.7091,3.25,13.6687,ASSEMBLY_SHELL-1_ALLEL,TI,"shell < TI > < 5 section points > : SNEG, (fraction = -1.0)",83.3876
C:/Users/srbb21/AppData/Local/Temp/rx18_gr30001521653382.841.odb,RELAX,Increment    105: Step Time =    1.000,SHELL-1,170,-11.7091,3.75,13.6687,ASSEMBLY_SHELL-1_ALLEL,TI,"shell < TI > < 5 section points > : SNEG, (fraction = -1.0)",83.1479
C:/Users/srbb21/AppData/Local/Temp/rx18_gr30001521653382.841.odb,RELAX,Increment    105: Step Time =    1.000,SHELL-1,170,-11.7091,3.75,13.6687,ASSEMBLY_SHELL-1_ALLEL,TI,"shell < TI > < 5 section points > : SPOS, (fraction = 1.0)",99.2617
C:/Users/srbb21/AppData/Local/Temp/rx18_gr30001521653382.841.odb,RELAX,Increment    105: Step Time =    1.000,SHELL-1,171,-11.7091,4.25,13.6687,ASSEMBLY_SHELL-1_ALLEL,TI,"shell < TI > < 5 section points > : SPOS, (fraction = 1.0)",99.0092
C:/Users/srbb21/AppData/Local/Temp/rx18_gr30001521653382.841.odb,RELAX,Increment    105: Step Time =    1.000,SHELL-1,171,-11.7091,4.25,13.6687,ASSEMBLY_SHELL-1_ALLEL,TI,"shell < TI > < 5 section points > : SNEG, (fraction = -1.0)",82.8092
C:/Users/srbb21/AppData/Local/Temp/rx18_gr30001521653382.841.odb,RELAX,Increment    105: Step Time =    1.000,SHELL-1,172,-11.7091,4.75,13.6687,ASSEMBLY_SHELL-1_ALLEL,TI,"shell < TI > < 5 section points > : SPOS, (fraction = 1.0)",98.5039
C:/Users/srbb21/AppData/Local/Temp/rx18_gr30001521653382.841.odb,RELAX,Increment    105: Step Time =    1.000,SHELL-1,172,-11.7091,4.75,13.6687,ASSEMBLY_SHELL-1_ALLEL,TI,"shell < TI > < 5 section points > : SNEG, (fraction = -1.0)",82.359
C:/Users/srbb21/AppData/Local/Temp/rx18_gr30001521653382.841.odb,RELAX,Increment    105: Step Time =    1.000,SHELL-1,173,-11.7091,5.25,13.6687,ASSEMBLY_SHELL-1_ALLEL,TI,"shell < TI > < 5 section points > : SPOS, (fraction = 1.0)",97.5798
C:/Users/srbb21/AppData/Local/Temp/rx18_gr30001521653382.841.odb,RELAX,Increment    105: Step Time =    1.000,SHELL-1,173,-11.7091,5.25,13.6687,ASSEMBLY_SHELL-1_ALLEL,TI,"shell < TI > < 5 section points > : SNEG, (fraction = -1.0)",81.7989
C:/Users/srbb21/AppData/Local/Temp/rx18_gr30001521653382.841.odb,RELAX,Increment    105: Step Time =    1.000,SHELL-1,174,-11.7091,5.75,13.6687,ASSEMBLY_SHELL-1_ALLEL,TI,"shell < TI > < 5 section points > : SPOS, (fraction = 1.0)",96.0596
C:/Users/srbb21/AppData/Local/Temp/rx18_gr30001521653382.841.odb,RELAX,Increment    105: Step Time =    1.000,SHELL-1,174,-11.7091,5.75,13.6687,ASSEMBLY_SHELL-1_ALLEL,TI,"shell < TI > < 5 section points > : SNEG, (fraction = -1.0)",81.0833
C:/Users/srbb21/AppData/Local/Temp/rx18_gr30001521653382.841.odb,RELAX,Increment    105: Step Time =    1.000,SHELL-1,175,-11.7091,6.25,13.6687,ASSEMBLY_SHELL-1_ALLEL,TI,"shell < TI > < 5 section points > : SNEG, (fraction = -1.0)",80.1168
C:/Users/srbb21/AppData/Local/Temp/rx18_gr30001521653382.841.odb,RELAX,Increment    105: Step Time =    1.000,SHELL-1,175,-11.7091,6.25,13.6687,ASSEMBLY_SHELL-1_ALLEL,TI,"shell < TI > < 5 section points > : SPOS, (fraction = 1.0)",93.7724
C:/Users/srbb21/AppData/Local/Temp/rx18_gr30001521653382.841.odb,RELAX,Increment    105: Step Time =    1.000,SHELL-1,176,-11.7091,6.75,13.6687,ASSEMBLY_SHELL-1_ALLEL,TI,"shell < TI > < 5 section points > : SPOS, (fraction = 1.0)",90.7578
C:/Users/srbb21/AppData/Local/Temp/rx18_gr30001521653382.841.odb,RELAX,Increment    105: Step Time =    1.000,SHELL-1,176,-11.7091,6.75,13.6687,ASSEMBLY_SHELL-1_ALLEL,TI,"shell < TI > < 5 section points > : SNEG, (fraction = -1.0)",78.5471
C:/Users/srbb21/AppData/Local/Temp/rx18_gr30001521653382.841.odb,RELAX,Increment    105: Step Time =    1.000,SHELL-1,177,-11.7091,7.25,13.6687,ASSEMBLY_SHELL-1_ALLEL,TI,"shell < TI > < 5 section points > : SPOS, (fraction = 1.0)",87.6533
C:/Users/srbb21/AppData/Local/Temp/rx18_gr30001521653382.841.odb,RELAX,Increment    105: Step Time =    1.000,SHELL-1,177,-11.7091,7.25,13.6687,ASSEMBLY_SHELL-1_ALLEL,TI,"shell < TI > < 5 section points > : SNEG, (fraction = -1.0)",75.6547
C:/Users/srbb21/AppData/Local/Temp/rx18_gr30001521653382.841.odb,RELAX,Increment    105: Step Time =    1.000,SHELL-1,178,-11.7091,7.75,13.6687,ASSEMBLY_SHELL-1_ALLEL,TI,"shell < TI > < 5 section points > : SPOS, (fraction = 1.0)",86.2999
C:/Users/srbb21/AppData/Local/Temp/rx18_gr30001521653382.841.odb,RELAX,Increment    105: Step Time =    1.000,SHELL-1,178,-11.7091,7.75,13.6687,ASSEMBLY_SHELL-1_ALLEL,TI,"shell < TI > < 5 section points > : SNEG, (fraction = -1.0)",69.9952
C:/Users/srbb21/AppData/Local/Temp/rx18_gr30001521653382.841.odb,RELAX,Increment    105: Step Time =    1.000,SHELL-1,179,-11.7091,8.25,13.6687,ASSEMBLY_SHELL-1_ALLEL,TI,"shell < TI > < 5 section points > : SNEG, (fraction = -1.0)",59.2134
C:/Users/srbb21/AppData/Local/Temp/rx18_gr30001521653382.841.odb,RELAX,Increment    105: Step Time =    1.000,SHELL-1,179,-11.7091,8.25,13.6687,ASSEMBLY_SHELL-1_ALLEL,TI,"shell < TI > < 5 section points > : SPOS, (fraction = 1.0)",91.0021
C:/Users/srbb21/AppData/Local/Temp/rx18_gr30001521653382.841.odb,RELAX,Increment    105: Step Time =    1.000,SHELL-1,180,-11.7091,8.75,13.6687,ASSEMBLY_SHELL-1_ALLEL,TI,"shell < TI > < 5 section points > : SPOS, (fraction = 1.0)",107.509
C:/Users/srbb21/AppData/Local/Temp/rx18_gr30001521653382.841.odb,RELAX,Increment    105: Step Time =    1.000,SHELL-1,180,-11.7091,8.75,13.6687,ASSEMBLY_SHELL-1_ALLEL,TI,"shell < TI > < 5 section points > : SNEG, (fraction = -1.0)",40.2264
C:/Users/srbb21/AppData/Local/Temp/rx18_gr30001521653382.841.odb,RELAX,Increment    105: Step Time =    1.000,SHELL-1,181,-11.325,-8.75,13.9887,ASSEMBLY_SHELL-1_ALLEL,TI,"shell < TI > < 5 section points > : SPOS, (fraction = 1.0)",122.094
C:/Users/srbb21/AppData/Local/Temp/rx18_gr30001521653382.841.odb,RELAX,Increment    105: Step Time =    1.000,SHELL-1,181,-11.325,-8.75,13.9887,ASSEMBLY_SHELL-1_ALLEL,TI,"shell < TI > < 5 section points > : SNEG, (fraction = -1.0)",50.3461
C:/Users/srbb21/AppData/Local/Temp/rx18_gr30001521653382.841.odb,RELAX,Increment    105: Step Time =    1.000,SHELL-1,182,-11.325,-8.25,13.9887,ASSEMBLY_SHELL-1_ALLEL,TI,"shell < TI > < 5 section points > : SPOS, (fraction = 1.0)",105.028
C:/Users/srbb21/AppData/Local/Temp/rx18_gr30001521653382.841.odb,RELAX,Increment    105: Step Time =    1.000,SHELL-1,182,-11.325,-8.25,13.9887,ASSEMBLY_SHELL-1_ALLEL,TI,"shell < TI > < 5 section points > : SNEG, (fraction = -1.0)",68.9849
C:/Users/srbb21/AppData/Local/Temp/rx18_gr30001521653382.841.odb,RELAX,Increment    105: Step Time =    1.000,SHELL-1,183,-11.325,-7.75,13.9887,ASSEMBLY_SHELL-1_ALLEL,TI,"shell < TI > < 5 section points > : SNEG, (fraction = -1.0)",80.6843
C:/Users/srbb21/AppData/Local/Temp/rx18_gr30001521653382.841.odb,RELAX,Increment    105: Step Time =    1.000,SHELL-1,183,-11.325,-7.75,13.9887,ASSEMBLY_SHELL-1_ALLEL,TI,"shell < TI > < 5 section points > : SPOS, (fraction = 1.0)",97.6991
C:/Users/srbb21/AppData/Local/Temp/rx18_gr30001521653382.841.odb,RELAX,Increment    105: Step Time =    1.000,SHELL-1,184,-11.325,-7.25,13.9887,ASSEMBLY_SHELL-1_ALLEL,TI,"shell < TI > < 5 section points > : SPOS, (fraction = 1.0)",96.684
C:/Users/srbb21/AppData/Local/Temp/rx18_gr30001521653382.841.odb,RELAX,Increment    105: Step Time =    1.000,SHELL-1,184,-11.325,-7.25,13.9887,ASSEMBLY_SHELL-1_ALLEL,TI,"shell < TI > < 5 section points > : SNEG, (fraction = -1.0)",87.5421
C:/Users/srbb21/AppData/Local/Temp/rx18_gr30001521653382.841.odb,RELAX,Increment    105: Step Time =    1.000,SHELL-1,185,-11.325,-6.75,13.9887,ASSEMBLY_SHELL-1_ALLEL,TI,"shell < TI > < 5 section points > : SPOS, (fraction = 1.0)",98.6507
C:/Users/srbb21/AppData/Local/Temp/rx18_gr30001521653382.841.odb,RELAX,Increment    105: Step Time =    1.000,SHELL-1,185,-11.325,-6.75,13.9887,ASSEMBLY_SHELL-1_ALLEL,TI,"shell < TI > < 5 section points > : SNEG, (fraction = -1.0)",91.2944
C:/Users/srbb21/AppData/Local/Temp/rx18_gr30001521653382.841.odb,RELAX,Increment    105: Step Time =    1.000,SHELL-1,186,-11.325,-6.25,13.9887,ASSEMBLY_SHELL-1_ALLEL,TI,"shell < TI > < 5 section points > : SPOS, (fraction = 1.0)",101.507
C:/Users/srbb21/AppData/Local/Temp/rx18_gr30001521653382.841.odb,RELAX,Increment    105: Step Time =    1.000,SHELL-1,186,-11.325,-6.25,13.9887,ASSEMBLY_SHELL-1_ALLEL,TI,"shell < TI > < 5 section points > : SNEG, (fraction = -1.0)",93.2807
C:/Users/srbb21/AppData/Local/Temp/rx18_gr30001521653382.841.odb,RELAX,Increment    105: Step Time =    1.000,SHELL-1,187,-11.325,-5.75,13.9887,ASSEMBLY_SHELL-1_ALLEL,TI,"shell < TI > < 5 section points > : SNEG, (fraction = -1.0)",94.3292
C:/Users/srbb21/AppData/Local/Temp/rx18_gr30001521653382.841.odb,RELAX,Increment    105: Step Time =    1.000,SHELL-1,187,-11.325,-5.75,13.9887,ASSEMBLY_SHELL-1_ALLEL,TI,"shell < TI > < 5 section points > : SPOS, (fraction = 1.0)",104.242
C:/Users/srbb21/AppData/Local/Temp/rx18_gr30001521653382.841.odb,RELAX,Increment    105: Step Time =    1.000,SHELL-1,188,-11.325,-5.25,13.9887,ASSEMBLY_SHELL-1_ALLEL,TI,"shell < TI > < 5 section points > : SPOS, (fraction = 1.0)",106.52
C:/Users/srbb21/AppData/Local/Temp/rx18_gr30001521653382.841.odb,RELAX,Increment    105: Step Time =    1.000,SHELL-1,188,-11.325,-5.25,13.9887,ASSEMBLY_SHELL-1_ALLEL,TI,"shell < TI > < 5 section points > : SNEG, (fraction = -1.0)",94.9078
C:/Users/srbb21/AppData/Local/Temp/rx18_gr30001521653382.841.odb,RELAX,Increment    105: Step Time =    1.000,SHELL-1,189,-11.325,-4.75,13.9887,ASSEMBLY_SHELL-1_ALLEL,TI,"shell < TI > < 5 section points > : SPOS, (fraction = 1.0)",108.286
C:/Users/srbb21/AppData/Local/Temp/rx18_gr30001521653382.841.odb,RELAX,Increment    105: Step Time =    1.000,SHELL-1,189,-11.325,-4.75,13.9887,ASSEMBLY_SHELL-1_ALLEL,TI,"shell < TI > < 5 section points > : SNEG, (fraction = -1.0)",95.2708
C:/Users/srbb21/AppData/Local/Temp/rx18_gr30001521653382.841.odb,RELAX,Increment    105: Step Time =    1.000,SHELL-1,190,-11.325,-4.25,13.9887,ASSEMBLY_SHELL-1_ALLEL,TI,"shell < TI > < 5 section points > : SPOS, (fraction = 1.0)",109.63
C:/Users/srbb21/AppData/Local/Temp/rx18_gr30001521653382.841.odb,RELAX,Increment    105: Step Time =    1.000,SHELL-1,190,-11.325,-4.25,13.9887,ASSEMBLY_SHELL-1_ALLEL,TI,"shell < TI > < 5 section points > : SNEG, (fraction = -1.0)",95.5184
C:/Users/srbb21/AppData/Local/Temp/rx18_gr30001521653382.841.odb,RELAX,Increment    105: Step Time =    1.000,SHELL-1,191,-11.325,-3.75,13.9887,ASSEMBLY_SHELL-1_ALLEL,TI,"shell < TI > < 5 section points > : SPOS, (fraction = 1.0)",110.644
C:/Users/srbb21/AppData/Local/Temp/rx18_gr30001521653382.841.odb,RELAX,Increment    105: Step Time =    1.000,SHELL-1,191,-11.325,-3.75,13.9887,ASSEMBLY_SHELL-1_ALLEL,TI,"shell < TI > < 5 section points > : SNEG, (fraction = -1.0)",95.7033
C:/Users/srbb21/AppData/Local/Temp/rx18_gr30001521653382.841.odb,RELAX,Increment    105: Step Time =    1.000,SHELL-1,192,-11.325,-3.25,13.9887,ASSEMBLY_SHELL-1_ALLEL,TI,"shell < TI > < 5 section points > : SNEG, (fraction = -1.0)",95.8358
C:/Users/srbb21/AppData/Local/Temp/rx18_gr30001521653382.841.odb,RELAX,Increment    105: Step Time =    1.000,SHELL-1,192,-11.325,-3.25,13.9887,ASSEMBLY_SHELL-1_ALLEL,TI,"shell < TI > < 5 section points > : SPOS, (fraction = 1.0)",111.421
C:/Users/srbb21/AppData/Local/Temp/rx18_gr30001521653382.841.odb,RELAX,Increment    105: Step Time =    1.000,SHELL-1,193,-11.325,-2.75,13.9887,ASSEMBLY_SHELL-1_ALLEL,TI,"shell < TI > < 5 section points > : SPOS, (fraction = 1.0)",112.022
C:/Users/srbb21/AppData/Local/Temp/rx18_gr30001521653382.841.odb,RELAX,Increment    105: Step Time =    1.000,SHELL-1,193,-11.325,-2.75,13.9887,ASSEMBLY_SHELL-1_ALLEL,TI,"shell < TI > < 5 section points > : SNEG, (fraction = -1.0)",95.9274
C:/Users/srbb21/AppData/Local/Temp/rx18_gr30001521653382.841.odb,RELAX,Increment    105: Step Time =    1.000,SHELL-1,194,-11.325,-2.25,13.9887,ASSEMBLY_SHELL-1_ALLEL,TI,"shell < TI > < 5 section points > : SPOS, (fraction = 1.0)",112.49
C:/Users/srbb21/AppData/Local/Temp/rx18_gr30001521653382.841.odb,RELAX,Increment    105: Step Time =    1.000,SHELL-1,194,-11.325,-2.25,13.9887,ASSEMBLY_SHELL-1_ALLEL,TI,"shell < TI > < 5 section points > : SNEG, (fraction = -1.0)",95.9821
C:/Users/srbb21/AppData/Local/Temp/rx18_gr30001521653382.841.odb,RELAX,Increment    105: Step Time =    1.000,SHELL-1,195,-11.325,-1.75,13.9887,ASSEMBLY_SHELL-1_ALLEL,TI,"shell < TI > < 5 section points > : SPOS, (fraction = 1.0)",112.848
C:/Users/srbb21/AppData/Local/Temp/rx18_gr30001521653382.841.odb,RELAX,Increment    105: Step Time =    1.000,SHELL-1,195,-11.325,-1.75,13.9887,ASSEMBLY_SHELL-1_ALLEL,TI,"shell < TI > < 5 section points > : SNEG, (fraction = -1.0)",96.01
C:/Users/srbb21/AppData/Local/Temp/rx18_gr30001521653382.841.odb,RELAX,Increment    105: Step Time =    1.000,SHELL-1,196,-11.325,-1.25,13.9887,ASSEMBLY_SHELL-1_ALLEL,TI,"shell < TI > < 5 section points > : SNEG, (fraction = -1.0)",96.0195
C:/Users/srbb21/AppData/Local/Temp/rx18_gr30001521653382.841.odb,RELAX,Increment    105: Step Time =    1.000,SHELL-1,196,-11.325,-1.25,13.9887,ASSEMBLY_SHELL-1_ALLEL,TI,"shell < TI > < 5 section points > : SPOS, (fraction = 1.0)",113.111
C:/Users/srbb21/AppData/Local/Temp/rx18_gr30001521653382.841.odb,RELAX,Increment    105: Step Time =    1.000,SHELL-1,197,-11.325,-0.75,13.9887,ASSEMBLY_SHELL-1_ALLEL,TI,"shell < TI > < 5 section points > : SPOS, (fraction = 1.0)",113.284
C:/Users/srbb21/AppData/Local/Temp/rx18_gr30001521653382.841.odb,RELAX,Increment    105: Step Time =    1.000,SHELL-1,197,-11.325,-0.75,13.9887,ASSEMBLY_SHELL-1_ALLEL,TI,"shell < TI > < 5 section points > : SNEG, (fraction = -1.0)",96.0203
C:/Users/srbb21/AppData/Local/Temp/rx18_gr30001521653382.841.odb,RELAX,Increment    105: Step Time =    1.000,SHELL-1,198,-11.325,-0.25,13.9887,ASSEMBLY_SHELL-1_ALLEL,TI,"shell < TI > < 5 section points > : SPOS, (fraction = 1.0)",113.37
C:/Users/srbb21/AppData/Local/Temp/rx18_gr30001521653382.841.odb,RELAX,Increment    105: Step Time =    1.000,SHELL-1,198,-11.325,-0.25,13.9887,ASSEMBLY_SHELL-1_ALLEL,TI,"shell < TI > < 5 section points > : SNEG, (fraction = -1.0)",96.0187
C:/Users/srbb21/AppData/Local/Temp/rx18_gr30001521653382.841.odb,RELAX,Increment    105: Step Time =    1.000,SHELL-1,199,-11.325,0.25,13.9887,ASSEMBLY_SHELL-1_ALLEL,TI,"shell < TI > < 5 section points > : SPOS, (fraction = 1.0)",113.37
C:/Users/srbb21/AppData/Local/Temp/rx18_gr30001521653382.841.odb,RELAX,Increment    105: Step Time =    1.000,SHELL-1,199,-11.325,0.25,13.9887,ASSEMBLY_SHELL-1_ALLEL,TI,"shell < TI > < 5 section points > : SNEG, (fraction = -1.0)",96.0187
C:/Users/srbb21/AppData/Local/Temp/rx18_gr30001521653382.841.odb,RELAX,Increment    105: Step Time =    1.000,SHELL-1,200,-11.325,0.75,13.9887,ASSEMBLY_SHELL-1_ALLEL,TI,"shell < TI > < 5 section points > : SNEG, (fraction = -1.0)",96.0203
C:/Users/srbb21/AppData/Local/Temp/rx18_gr30001521653382.841.odb,RELAX,Increment    105: Step Time =    1.000,SHELL-1,200,-11.325,0.75,13.9887,ASSEMBLY_SHELL-1_ALLEL,TI,"shell < TI > < 5 section points > : SPOS, (fraction = 1.0)",113.284
C:/Users/srbb21/AppData/Local/Temp/rx18_gr30001521653382.841.odb,RELAX,Increment    105: Step Time =    1.000,SHELL-1,201,-11.325,1.25,13.9887,ASSEMBLY_SHELL-1_ALLEL,TI,"shell < TI > < 5 section points > : SPOS, (fraction = 1.0)",113.111
C:/Users/srbb21/AppData/Local/Temp/rx18_gr30001521653382.841.odb,RELAX,Increment    105: Step Time =    1.000,SHELL-1,201,-11.325,1.25,13.9887,ASSEMBLY_SHELL-1_ALLEL,TI,"shell < TI > < 5 section points > : SNEG, (fraction = -1.0)",96.0195
C:/Users/srbb21/AppData/Local/Temp/rx18_gr30001521653382.841.odb,RELAX,Increment    105: Step Time =    1.000,SHELL-1,202,-11.325,1.75,13.9887,ASSEMBLY_SHELL-1_ALLEL,TI,"shell < TI > < 5 section points > : SPOS, (fraction = 1.0)",112.848
C:/Users/srbb21/AppData/Local/Temp/rx18_gr30001521653382.841.odb,RELAX,Increment    105: Step Time =    1.000,SHELL-1,202,-11.325,1.75,13.9887,ASSEMBLY_SHELL-1_ALLEL,TI,"shell < TI > < 5 section points > : SNEG, (fraction = -1.0)",96.01
C:/Users/srbb21/AppData/Local/Temp/rx18_gr30001521653382.841.odb,RELAX,Increment    105: Step Time =    1.000,SHELL-1,203,-11.325,2.25,13.9887,ASSEMBLY_SHELL-1_ALLEL,TI,"shell < TI > < 5 section points > : SPOS, (fraction = 1.0)",112.49
C:/Users/srbb21/AppData/Local/Temp/rx18_gr30001521653382.841.odb,RELAX,Increment    105: Step Time =    1.000,SHELL-1,203,-11.325,2.25,13.9887,ASSEMBLY_SHELL-1_ALLEL,TI,"shell < TI > < 5 section points > : SNEG, (fraction = -1.0)",95.9821
C:/Users/srbb21/AppData/Local/Temp/rx18_gr30001521653382.841.odb,RELAX,Increment    105: Step Time =    1.000,SHELL-1,204,-11.325,2.75,13.9887,ASSEMBLY_SHELL-1_ALLEL,TI,"shell < TI > < 5 section points > : SNEG, (fraction = -1.0)",95.9274
C:/Users/srbb21/AppData/Local/Temp/rx18_gr30001521653382.841.odb,RELAX,Increment    105: Step Time =    1.000,SHELL-1,204,-11.325,2.75,13.9887,ASSEMBLY_SHELL-1_ALLEL,TI,"shell < TI > < 5 section points > : SPOS, (fraction = 1.0)",112.022
C:/Users/srbb21/AppData/Local/Temp/rx18_gr30001521653382.841.odb,RELAX,Increment    105: Step Time =    1.000,SHELL-1,205,-11.325,3.25,13.9887,ASSEMBLY_SHELL-1_ALLEL,TI,"shell < TI > < 5 section points > : SPOS, (fraction = 1.0)",111.421
C:/Users/srbb21/AppData/Local/Temp/rx18_gr30001521653382.841.odb,RELAX,Increment    105: Step Time =    1.000,SHELL-1,205,-11.325,3.25,13.9887,ASSEMBLY_SHELL-1_ALLEL,TI,"shell < TI > < 5 section points > : SNEG, (fraction = -1.0)",95.8358
C:/Users/srbb21/AppData/Local/Temp/rx18_gr30001521653382.841.odb,RELAX,Increment    105: Step Time =    1.000,SHELL-1,206,-11.325,3.75,13.9887,ASSEMBLY_SHELL-1_ALLEL,TI,"shell < TI > < 5 section points > : SPOS, (fraction = 1.0)",110.644
C:/Users/srbb21/AppData/Local/Temp/rx18_gr30001521653382.841.odb,RELAX,Increment    105: Step Time =    1.000,SHELL-1,206,-11.325,3.75,13.9887,ASSEMBLY_SHELL-1_ALLEL,TI,"shell < TI > < 5 section points > : SNEG, (fraction = -1.0)",95.7033
C:/Users/srbb21/AppData/Local/Temp/rx18_gr30001521653382.841.odb,RELAX,Increment    105: Step Time =    1.000,SHELL-1,207,-11.325,4.25,13.9887,ASSEMBLY_SHELL-1_ALLEL,TI,"shell < TI > < 5 section points > : SPOS, (fraction = 1.0)",109.63
C:/Users/srbb21/AppData/Local/Temp/rx18_gr30001521653382.841.odb,RELAX,Increment    105: Step Time =    1.000,SHELL-1,207,-11.325,4.25,13.9887,ASSEMBLY_SHELL-1_ALLEL,TI,"shell < TI > < 5 section points > : SNEG, (fraction = -1.0)",95.5184
C:/Users/srbb21/AppData/Local/Temp/rx18_gr30001521653382.841.odb,RELAX,Increment    105: Step Time =    1.000,SHELL-1,208,-11.325,4.75,13.9887,ASSEMBLY_SHELL-1_ALLEL,TI,"shell < TI > < 5 section points > : SPOS, (fraction = 1.0)",108.286
C:/Users/srbb21/AppData/Local/Temp/rx18_gr30001521653382.841.odb,RELAX,Increment    105: Step Time =    1.000,SHELL-1,208,-11.325,4.75,13.9887,ASSEMBLY_SHELL-1_ALLEL,TI,"shell < TI > < 5 section points > : SNEG, (fraction = -1.0)",95.2708
C:/Users/srbb21/AppData/Local/Temp/rx18_gr30001521653382.841.odb,RELAX,Increment    105: Step Time =    1.000,SHELL-1,209,-11.325,5.25,13.9887,ASSEMBLY_SHELL-1_ALLEL,TI,"shell < TI > < 5 section points > : SNEG, (fraction = -1.0)",94.9078
C:/Users/srbb21/AppData/Local/Temp/rx18_gr30001521653382.841.odb,RELAX,Increment    105: Step Time =    1.000,SHELL-1,209,-11.325,5.25,13.9887,ASSEMBLY_SHELL-1_ALLEL,TI,"shell < TI > < 5 section points > : SPOS, (fraction = 1.0)",106.52
C:/Users/srbb21/AppData/Local/Temp/rx18_gr30001521653382.841.odb,RELAX,Increment    105: Step Time =    1.000,SHELL-1,210,-11.325,5.75,13.9887,ASSEMBLY_SHELL-1_ALLEL,TI,"shell < TI > < 5 section points > : SPOS, (fraction = 1.0)",104.242
C:/Users/srbb21/AppData/Local/Temp/rx18_gr30001521653382.841.odb,RELAX,Increment    105: Step Time =    1.000,SHELL-1,210,-11.325,5.75,13.9887,ASSEMBLY_SHELL-1_ALLEL,TI,"shell < TI > < 5 section points > : SNEG, (fraction = -1.0)",94.3292
C:/Users/srbb21/AppData/Local/Temp/rx18_gr30001521653382.841.odb,RELAX,Increment    105: Step Time =    1.000,SHELL-1,211,-11.325,6.25,13.9887,ASSEMBLY_SHELL-1_ALLEL,TI,"shell < TI > < 5 section points > : SPOS, (fraction = 1.0)",101.507
C:/Users/srbb21/AppData/Local/Temp/rx18_gr30001521653382.841.odb,RELAX,Increment    105: Step Time =    1.000,SHELL-1,211,-11.325,6.25,13.9887,ASSEMBLY_SHELL-1_ALLEL,TI,"shell < TI > < 5 section points > : SNEG, (fraction = -1.0)",93.2807
C:/Users/srbb21/AppData/Local/Temp/rx18_gr30001521653382.841.odb,RELAX,Increment    105: Step Time =    1.000,SHELL-1,212,-11.325,6.75,13.9887,ASSEMBLY_SHELL-1_ALLEL,TI,"shell < TI > < 5 section points > : SPOS, (fraction = 1.0)",98.6507
C:/Users/srbb21/AppData/Local/Temp/rx18_gr30001521653382.841.odb,RELAX,Increment    105: Step Time =    1.000,SHELL-1,212,-11.325,6.75,13.9887,ASSEMBLY_SHELL-1_ALLEL,TI,"shell < TI > < 5 section points > : SNEG, (fraction = -1.0)",91.2944
C:/Users/srbb21/AppData/Local/Temp/rx18_gr30001521653382.841.odb,RELAX,Increment    105: Step Time =    1.000,SHELL-1,213,-11.325,7.25,13.9887,ASSEMBLY_SHELL-1_ALLEL,TI,"shell < TI > < 5 section points > : SNEG, (fraction = -1.0)",87.5421
C:/Users/srbb21/AppData/Local/Temp/rx18_gr30001521653382.841.odb,RELAX,Increment    105: Step Time =    1.000,SHELL-1,213,-11.325,7.25,13.9887,ASSEMBLY_SHELL-1_ALLEL,TI,"shell < TI > < 5 section points > : SPOS, (fraction = 1.0)",96.684
C:/Users/srbb21/AppData/Local/Temp/rx18_gr30001521653382.841.odb,RELAX,Increment    105: Step Time =    1.000,SHELL-1,214,-11.325,7.75,13.9887,ASSEMBLY_SHELL-1_ALLEL,TI,"shell < TI > < 5 section points > : SPOS, (fraction = 1.0)",97.6991
C:/Users/srbb21/AppData/Local/Temp/rx18_gr30001521653382.841.odb,RELAX,Increment    105: Step Time =    1.000,SHELL-1,214,-11.325,7.75,13.9887,ASSEMBLY_SHELL-1_ALLEL,TI,"shell < TI > < 5 section points > : SNEG, (fraction = -1.0)",80.6843
C:/Users/srbb21/AppData/Local/Temp/rx18_gr30001521653382.841.odb,RELAX,Increment    105: Step Time =    1.000,SHELL-1,215,-11.325,8.25,13.9887,ASSEMBLY_SHELL-1_ALLEL,TI,"shell < TI > < 5 section points > : SPOS, (fraction = 1.0)",105.028
C:/Users/srbb21/AppData/Local/Temp/rx18_gr30001521653382.841.odb,RELAX,Increment    105: Step Time =    1.000,SHELL-1,215,-11.325,8.25,13.9887,ASSEMBLY_SHELL-1_ALLEL,TI,"shell < TI > < 5 section points > : SNEG, (fraction = -1.0)",68.9849
C:/Users/srbb21/AppData/Local/Temp/rx18_gr30001521653382.841.odb,RELAX,Increment    105: Step Time =    1.000,SHELL-1,216,-11.325,8.75,13.9887,ASSEMBLY_SHELL-1_ALLEL,TI,"shell < TI > < 5 section points > : SPOS, (fraction = 1.0)",122.094
C:/Users/srbb21/AppData/Local/Temp/rx18_gr30001521653382.841.odb,RELAX,Increment    105: Step Time =    1.000,SHELL-1,216,-11.325,8.75,13.9887,ASSEMBLY_SHELL-1_ALLEL,TI,"shell < TI > < 5 section points > : SNEG, (fraction = -1.0)",50.3461
C:/Users/srbb21/AppData/Local/Temp/rx18_gr30001521653382.841.odb,RELAX,Increment    105: Step Time =    1.000,SHELL-1,217,-10.9321,-8.75,14.2978,ASSEMBLY_SHELL-1_ALLEL,TI,"shell < TI > < 5 section points > : SNEG, (fraction = -1.0)",59.7878
C:/Users/srbb21/AppData/Local/Temp/rx18_gr30001521653382.841.odb,RELAX,Increment    105: Step Time =    1.000,SHELL-1,217,-10.9321,-8.75,14.2978,ASSEMBLY_SHELL-1_ALLEL,TI,"shell < TI > < 5 section points > : SPOS, (fraction = 1.0)",132.19
C:/Users/srbb21/AppData/Local/Temp/rx18_gr30001521653382.841.odb,RELAX,Increment    105: Step Time =    1.000,SHELL-1,218,-10.9321,-8.25,14.2978,ASSEMBLY_SHELL-1_ALLEL,TI,"shell < TI > < 5 section points > : SPOS, (fraction = 1.0)",116.113
C:/Users/srbb21/AppData/Local/Temp/rx18_gr30001521653382.841.odb,RELAX,Increment    105: Step Time =    1.000,SHELL-1,218,-10.9321,-8.25,14.2978,ASSEMBLY_SHELL-1_ALLEL,TI,"shell < TI > < 5 section points > : SNEG, (fraction = -1.0)",77.3571
C:/Users/srbb21/AppData/Local/Temp/rx18_gr30001521653382.841.odb,RELAX,Increment    105: Step Time =    1.000,SHELL-1,219,-10.9321,-7.75,14.2978,ASSEMBLY_SHELL-1_ALLEL,TI,"shell < TI > < 5 section points > : SPOS, (fraction = 1.0)",107.55
C:/Users/srbb21/AppData/Local/Temp/rx18_gr30001521653382.841.odb,RELAX,Increment    105: Step Time =    1.000,SHELL-1,219,-10.9321,-7.75,14.2978,ASSEMBLY_SHELL-1_ALLEL,TI,"shell < TI > < 5 section points > : SNEG, (fraction = -1.0)",89.3643
C:/Users/srbb21/AppData/Local/Temp/rx18_gr30001521653382.841.odb,RELAX,Increment    105: Step Time =    1.000,SHELL-1,220,-10.9321,-7.25,14.2978,ASSEMBLY_SHELL-1_ALLEL,TI,"shell < TI > < 5 section points > : SPOS, (fraction = 1.0)",104.693
C:/Users/srbb21/AppData/Local/Temp/rx18_gr30001521653382.841.odb,RELAX,Increment    105: Step Time =    1.000,SHELL-1,220,-10.9321,-7.25,14.2978,ASSEMBLY_SHELL-1_ALLEL,TI,"shell < TI > < 5 section points > : SNEG, (fraction = -1.0)",97.0657
C:/Users/srbb21/AppData/Local/Temp/rx18_gr30001521653382.841.odb,RELAX,Increment    105: Step Time =    1.000,SHELL-1,221,-10.9321,-6.75,14.2978,ASSEMBLY_SHELL-1_ALLEL,TI,"shell < TI > < 5 section points > : SNEG, (fraction = -1.0)",101.711
C:/Users/srbb21/AppData/Local/Temp/rx18_gr30001521653382.841.odb,RELAX,Increment    105: Step Time =    1.000,SHELL-1,221,-10.9321,-6.75,14.2978,ASSEMBLY_SHELL-1_ALLEL,TI,"shell < TI > < 5 section points > : SPOS, (fraction = 1.0)",105.21
C:/Users/srbb21/AppData/Local/Temp/rx18_gr30001521653382.841.odb,RELAX,Increment    105: Step Time =    1.000,SHELL-1,222,-10.9321,-6.25,14.2978,ASSEMBLY_SHELL-1_ALLEL,TI,"shell < TI > < 5 section points > : SPOS, (fraction = 1.0)",107.341
C:/Users/srbb21/AppData/Local/Temp/rx18_gr30001521653382.841.odb,RELAX,Increment    105: Step Time =    1.000,SHELL-1,222,-10.9321,-6.25,14.2978,ASSEMBLY_SHELL-1_ALLEL,TI,"shell < TI > < 5 section points > : SNEG, (fraction = -1.0)",104.378
C:/Users/srbb21/AppData/Local/Temp/rx18_gr30001521653382.841.odb,RELAX,Increment    105: Step Time =    1.000,SHELL-1,223,-10.9321,-5.75,14.2978,ASSEMBLY_SHELL-1_ALLEL,TI,"shell < TI > < 5 section points > : SPOS, (fraction = 1.0)",109.938
C:/Users/srbb21/AppData/Local/Temp/rx18_gr30001521653382.841.odb,RELAX,Increment    105: Step Time =    1.000,SHELL-1,223,-10.9321,-5.75,14.2978,ASSEMBLY_SHELL-1_ALLEL,TI,"shell < TI > < 5 section points > : SNEG, (fraction = -1.0)",105.85
C:/Users/srbb21/AppData/Local/Temp/rx18_gr30001521653382.841.odb,RELAX,Increment    105: Step Time =    1.000,SHELL-1,224,-10.9321,-5.25,14.2978,ASSEMBLY_SHELL-1_ALLEL,TI,"shell < TI > < 5 section points > : SPOS, (fraction = 1.0)",112.465
C:/Users/srbb21/AppData/Local/Temp/rx18_gr30001521653382.841.odb,RELAX,Increment    105: Step Time =    1.000,SHELL-1,224,-10.9321,-5.25,14.2978,ASSEMBLY_SHELL-1_ALLEL,TI,"shell < TI > < 5 section points > : SNEG, (fraction = -1.0)",106.652
C:/Users/srbb21/AppData/Local/Temp/rx18_gr30001521653382.841.odb,RELAX,Increment    105: Step Time =    1.000,SHELL-1,225,-10.9321,-4.75,14.2978,ASSEMBLY_SHELL-1_ALLEL,TI,"shell < TI > < 5 section points > : SPOS, (fraction = 1.0)",114.699
C:/Users/srbb21/AppData/Local/Temp/rx18_gr30001521653382.841.odb,RELAX,Increment    105: Step Time =    1.000,SHELL-1,225,-10.9321,-4.75,14.2978,ASSEMBLY_SHELL-1_ALLEL,TI,"shell < TI > < 5 section points > : SNEG, (fraction = -1.0)",107.089
C:/Users/srbb21/AppData/Local/Temp/rx18_gr30001521653382.841.odb,RELAX,Increment    105: Step Time =    1.000,SHELL-1,226,-10.9321,-4.25,14.2978,ASSEMBLY_SHELL-1_ALLEL,TI,"shell < TI > < 5 section points > : SNEG, (fraction = -1.0)",107.344
C:/Users/srbb21/AppData/Local/Temp/rx18_gr30001521653382.841.odb,RELAX,Increment    105: Step Time =    1.000,SHELL-1,226,-10.9321,-4.25,14.2978,ASSEMBLY_SHELL-1_ALLEL,TI,"shell < TI > < 5 section points > : SPOS, (fraction = 1.0)",116.59
C:/Users/srbb21/AppData/Local/Temp/rx18_gr30001521653382.841.odb,RELAX,Increment    105: Step Time =    1.000,SHELL-1,227,-10.9321,-3.75,14.2978,ASSEMBLY_SHELL-1_ALLEL,TI,"shell < TI > < 5 section points > : SPOS, (fraction = 1.0)",118.164
C:/Users/srbb21/AppData/Local/Temp/rx18_gr30001521653382.841.odb,RELAX,Increment    105: Step Time =    1.000,SHELL-1,227,-10.9321,-3.75,14.2978,ASSEMBLY_SHELL-1_ALLEL,TI,"shell < TI > < 5 section points > : SNEG, (fraction = -1.0)",107.499
C:/Users/srbb21/AppData/Local/Temp/rx18_gr30001521653382.841.odb,RELAX,Increment    105: Step Time =    1.000,SHELL-1,228,-10.9321,-3.25,14.2978,ASSEMBLY_SHELL-1_ALLEL,TI,"shell < TI > < 5 section points > : SPOS, (fraction = 1.0)",119.459
C:/Users/srbb21/AppData/Local/Temp/rx18_gr30001521653382.841.odb,RELAX,Increment    105: Step Time =    1.000,SHELL-1,228,-10.9321,-3.25,14.2978,ASSEMBLY_SHELL-1_ALLEL,TI,"shell < TI > < 5 section points > : SNEG, (fraction = -1.0)",107.6
C:/Users/srbb21/AppData/Local/Temp/rx18_gr30001521653382.841.odb,RELAX,Increment    105: Step Time =    1.000,SHELL-1,229,-10.9321,-2.75,14.2978,ASSEMBLY_SHELL-1_ALLEL,TI,"shell < TI > < 5 section points > : SPOS, (fraction = 1.0)",120.518
C:/Users/srbb21/AppData/Local/Temp/rx18_gr30001521653382.841.odb,RELAX,Increment    105: Step Time =    1.000,SHELL-1,229,-10.9321,-2.75,14.2978,ASSEMBLY_SHELL-1_ALLEL,TI,"shell < TI > < 5 section points > : SNEG, (fraction = -1.0)",107.663
C:/Users/srbb21/AppData/Local/Temp/rx18_gr30001521653382.841.odb,RELAX,Increment    105: Step Time =    1.000,SHELL-1,230,-10.9321,-2.25,14.2978,ASSEMBLY_SHELL-1_ALLEL,TI,"shell < TI > < 5 section points > : SNEG, (fraction = -1.0)",107.7
C:/Users/srbb21/AppData/Local/Temp/rx18_gr30001521653382.841.odb,RELAX,Increment    105: Step Time =    1.000,SHELL-1,230,-10.9321,-2.25,14.2978,ASSEMBLY_SHELL-1_ALLEL,TI,"shell < TI > < 5 section points > : SPOS, (fraction = 1.0)",121.366
C:/Users/srbb21/AppData/Local/Temp/rx18_gr30001521653382.841.odb,RELAX,Increment    105: Step Time =    1.000,SHELL-1,231,-10.9321,-1.75,14.2978,ASSEMBLY_SHELL-1_ALLEL,TI,"shell < TI > < 5 section points > : SPOS, (fraction = 1.0)",122.028
C:/Users/srbb21/AppData/Local/Temp/rx18_gr30001521653382.841.odb,RELAX,Increment    105: Step Time =    1.000,SHELL-1,231,-10.9321,-1.75,14.2978,ASSEMBLY_SHELL-1_ALLEL,TI,"shell < TI > < 5 section points > : SNEG, (fraction = -1.0)",107.718
C:/Users/srbb21/AppData/Local/Temp/rx18_gr30001521653382.841.odb,RELAX,Increment    105: Step Time =    1.000,SHELL-1,232,-10.9321,-1.25,14.2978,ASSEMBLY_SHELL-1_ALLEL,TI,"shell < TI > < 5 section points > : SPOS, (fraction = 1.0)",122.515
C:/Users/srbb21/AppData/Local/Temp/rx18_gr30001521653382.841.odb,RELAX,Increment    105: Step Time =    1.000,SHELL-1,232,-10.9321,-1.25,14.2978,ASSEMBLY_SHELL-1_ALLEL,TI,"shell < TI > < 5 section points > : SNEG, (fraction = -1.0)",107.723
C:/Users/srbb21/AppData/Local/Temp/rx18_gr30001521653382.841.odb,RELAX,Increment    105: Step Time =    1.000,SHELL-1,233,-10.9321,-0.75,14.2978,ASSEMBLY_SHELL-1_ALLEL,TI,"shell < TI > < 5 section points > : SPOS, (fraction = 1.0)",122.837
C:/Users/srbb21/AppData/Local/Temp/rx18_gr30001521653382.841.odb,RELAX,Increment    105: Step Time =    1.000,SHELL-1,233,-10.9321,-0.75,14.2978,ASSEMBLY_SHELL-1_ALLEL,TI,"shell < TI > < 5 section points > : SNEG, (fraction = -1.0)",107.723
C:/Users/srbb21/AppData/Local/Temp/rx18_gr30001521653382.841.odb,RELAX,Increment    105: Step Time =    1.000,SHELL-1,234,-10.9321,-0.25,14.2978,ASSEMBLY_SHELL-1_ALLEL,TI,"shell < TI > < 5 section points > : SNEG, (fraction = -1.0)",107.721
C:/Users/srbb21/AppData/Local/Temp/rx18_gr30001521653382.841.odb,RELAX,Increment    105: Step Time =    1.000,SHELL-1,234,-10.9321,-0.25,14.2978,ASSEMBLY_SHELL-1_ALLEL,TI,"shell < TI > < 5 section points > : SPOS, (fraction = 1.0)",122.996
C:/Users/srbb21/AppData/Local/Temp/rx18_gr30001521653382.841.odb,RELAX,Increment    105: Step Time =    1.000,SHELL-1,235,-10.9321,0.25,14.2978,ASSEMBLY_SHELL-1_ALLEL,TI,"shell < TI > < 5 section points > : SPOS, (fraction = 1.0)",122.996
C:/Users/srbb21/AppData/Local/Temp/rx18_gr30001521653382.841.odb,RELAX,Increment    105: Step Time =    1.000,SHELL-1,235,-10.9321,0.25,14.2978,ASSEMBLY_SHELL-1_ALLEL,TI,"shell < TI > < 5 section points > : SNEG, (fraction = -1.0)",107.721
C:/Users/srbb21/AppData/Local/Temp/rx18_gr30001521653382.841.odb,RELAX,Increment    105: Step Time =    1.000,SHELL-1,236,-10.9321,0.75,14.2978,ASSEMBLY_SHELL-1_ALLEL,TI,"shell < TI > < 5 section points > : SPOS, (fraction = 1.0)",122.837
C:/Users/srbb21/AppData/Local/Temp/rx18_gr30001521653382.841.odb,RELAX,Increment    105: Step Time =    1.000,SHELL-1,236,-10.9321,0.75,14.2978,ASSEMBLY_SHELL-1_ALLEL,TI,"shell < TI > < 5 section points > : SNEG, (fraction = -1.0)",107.723
C:/Users/srbb21/AppData/Local/Temp/rx18_gr30001521653382.841.odb,RELAX,Increment    105: Step Time =    1.000,SHELL-1,237,-10.9321,1.25,14.2978,ASSEMBLY_SHELL-1_ALLEL,TI,"shell < TI > < 5 section points > : SPOS, (fraction = 1.0)",122.515
C:/Users/srbb21/AppData/Local/Temp/rx18_gr30001521653382.841.odb,RELAX,Increment    105: Step Time =    1.000,SHELL-1,237,-10.9321,1.25,14.2978,ASSEMBLY_SHELL-1_ALLEL,TI,"shell < TI > < 5 section points > : SNEG, (fraction = -1.0)",107.723
C:/Users/srbb21/AppData/Local/Temp/rx18_gr30001521653382.841.odb,RELAX,Increment    105: Step Time =    1.000,SHELL-1,238,-10.9321,1.75,14.2978,ASSEMBLY_SHELL-1_ALLEL,TI,"shell < TI > < 5 section points > : SNEG, (fraction = -1.0)",107.718
C:/Users/srbb21/AppData/Local/Temp/rx18_gr30001521653382.841.odb,RELAX,Increment    105: Step Time =    1.000,SHELL-1,238,-10.9321,1.75,14.2978,ASSEMBLY_SHELL-1_ALLEL,TI,"shell < TI > < 5 section points > : SPOS, (fraction = 1.0)",122.028
C:/Users/srbb21/AppData/Local/Temp/rx18_gr30001521653382.841.odb,RELAX,Increment    105: Step Time =    1.000,SHELL-1,239,-10.9321,2.25,14.2978,ASSEMBLY_SHELL-1_ALLEL,TI,"shell < TI > < 5 section points > : SPOS, (fraction = 1.0)",121.366
C:/Users/srbb21/AppData/Local/Temp/rx18_gr30001521653382.841.odb,RELAX,Increment    105: Step Time =    1.000,SHELL-1,239,-10.9321,2.25,14.2978,ASSEMBLY_SHELL-1_ALLEL,TI,"shell < TI > < 5 section points > : SNEG, (fraction = -1.0)",107.7
C:/Users/srbb21/AppData/Local/Temp/rx18_gr30001521653382.841.odb,RELAX,Increment    105: Step Time =    1.000,SHELL-1,240,-10.9321,2.75,14.2978,ASSEMBLY_SHELL-1_ALLEL,TI,"shell < TI > < 5 section points > : SPOS, (fraction = 1.0)",120.518
C:/Users/srbb21/AppData/Local/Temp/rx18_gr30001521653382.841.odb,RELAX,Increment    105: Step Time =    1.000,SHELL-1,240,-10.9321,2.75,14.2978,ASSEMBLY_SHELL-1_ALLEL,TI,"shell < TI > < 5 section points > : SNEG, (fraction = -1.0)",107.663
C:/Users/srbb21/AppData/Local/Temp/rx18_gr30001521653382.841.odb,RELAX,Increment    105: Step Time =    1.000,SHELL-1,241,-10.9321,3.25,14.2978,ASSEMBLY_SHELL-1_ALLEL,TI,"shell < TI > < 5 section points > : SPOS, (fraction = 1.0)",119.459
C:/Users/srbb21/AppData/Local/Temp/rx18_gr30001521653382.841.odb,RELAX,Increment    105: Step Time =    1.000,SHELL-1,241,-10.9321,3.25,14.2978,ASSEMBLY_SHELL-1_ALLEL,TI,"shell < TI > < 5 section points > : SNEG, (fraction = -1.0)",107.6
C:/Users/srbb21/AppData/Local/Temp/rx18_gr30001521653382.841.odb,RELAX,Increment    105: Step Time =    1.000,SHELL-1,242,-10.9321,3.75,14.2978,ASSEMBLY_SHELL-1_ALLEL,TI,"shell < TI > < 5 section points > : SPOS, (fraction = 1.0)",118.164
C:/Users/srbb21/AppData/Local/Temp/rx18_gr30001521653382.841.odb,RELAX,Increment    105: Step Time =    1.000,SHELL-1,242,-10.9321,3.75,14.2978,ASSEMBLY_SHELL-1_ALLEL,TI,"shell < TI > < 5 section points > : SNEG, (fraction = -1.0)",107.499
C:/Users/srbb21/AppData/Local/Temp/rx18_gr30001521653382.841.odb,RELAX,Increment    105: Step Time =    1.000,SHELL-1,243,-10.9321,4.25,14.2978,ASSEMBLY_SHELL-1_ALLEL,TI,"shell < TI > < 5 section points > : SNEG, (fraction = -1.0)",107.344
C:/Users/srbb21/AppData/Local/Temp/rx18_gr30001521653382.841.odb,RELAX,Increment    105: Step Time =    1.000,SHELL-1,243,-10.9321,4.25,14.2978,ASSEMBLY_SHELL-1_ALLEL,TI,"shell < TI > < 5 section points > : SPOS, (fraction = 1.0)",116.59
C:/Users/srbb21/AppData/Local/Temp/rx18_gr30001521653382.841.odb,RELAX,Increment    105: Step Time =    1.000,SHELL-1,244,-10.9321,4.75,14.2978,ASSEMBLY_SHELL-1_ALLEL,TI,"shell < TI > < 5 section points > : SPOS, (fraction = 1.0)",114.699
C:/Users/srbb21/AppData/Local/Temp/rx18_gr30001521653382.841.odb,RELAX,Increment    105: Step Time =    1.000,SHELL-1,244,-10.9321,4.75,14.2978,ASSEMBLY_SHELL-1_ALLEL,TI,"shell < TI > < 5 section points > : SNEG, (fraction = -1.0)",107.089
C:/Users/srbb21/AppData/Local/Temp/rx18_gr30001521653382.841.odb,RELAX,Increment    105: Step Time =    1.000,SHELL-1,245,-10.9321,5.25,14.2978,ASSEMBLY_SHELL-1_ALLEL,TI,"shell < TI > < 5 section points > : SPOS, (fraction = 1.0)",112.465
C:/Users/srbb21/AppData/Local/Temp/rx18_gr30001521653382.841.odb,RELAX,Increment    105: Step Time =    1.000,SHELL-1,245,-10.9321,5.25,14.2978,ASSEMBLY_SHELL-1_ALLEL,TI,"shell < TI > < 5 section points > : SNEG, (fraction = -1.0)",106.652
C:/Users/srbb21/AppData/Local/Temp/rx18_gr30001521653382.841.odb,RELAX,Increment    105: Step Time =    1.000,SHELL-1,246,-10.9321,5.75,14.2978,ASSEMBLY_SHELL-1_ALLEL,TI,"shell < TI > < 5 section points > : SPOS, (fraction = 1.0)",109.938
C:/Users/srbb21/AppData/Local/Temp/rx18_gr30001521653382.841.odb,RELAX,Increment    105: Step Time =    1.000,SHELL-1,246,-10.9321,5.75,14.2978,ASSEMBLY_SHELL-1_ALLEL,TI,"shell < TI > < 5 section points > : SNEG, (fraction = -1.0)",105.85
C:/Users/srbb21/AppData/Local/Temp/rx18_gr30001521653382.841.odb,RELAX,Increment    105: Step Time =    1.000,SHELL-1,247,-10.9321,6.25,14.2978,ASSEMBLY_SHELL-1_ALLEL,TI,"shell < TI > < 5 section points > : SNEG, (fraction = -1.0)",104.378
C:/Users/srbb21/AppData/Local/Temp/rx18_gr30001521653382.841.odb,RELAX,Increment    105: Step Time =    1.000,SHELL-1,247,-10.9321,6.25,14.2978,ASSEMBLY_SHELL-1_ALLEL,TI,"shell < TI > < 5 section points > : SPOS, (fraction = 1.0)",107.341
C:/Users/srbb21/AppData/Local/Temp/rx18_gr30001521653382.841.odb,RELAX,Increment    105: Step Time =    1.000,SHELL-1,248,-10.9321,6.75,14.2978,ASSEMBLY_SHELL-1_ALLEL,TI,"shell < TI > < 5 section points > : SPOS, (fraction = 1.0)",105.21
C:/Users/srbb21/AppData/Local/Temp/rx18_gr30001521653382.841.odb,RELAX,Increment    105: Step Time =    1.000,SHELL-1,248,-10.9321,6.75,14.2978,ASSEMBLY_SHELL-1_ALLEL,TI,"shell < TI > < 5 section points > : SNEG, (fraction = -1.0)",101.711
C:/Users/srbb21/AppData/Local/Temp/rx18_gr30001521653382.841.odb,RELAX,Increment    105: Step Time =    1.000,SHELL-1,249,-10.9321,7.25,14.2978,ASSEMBLY_SHELL-1_ALLEL,TI,"shell < TI > < 5 section points > : SPOS, (fraction = 1.0)",104.693
C:/Users/srbb21/AppData/Local/Temp/rx18_gr30001521653382.841.odb,RELAX,Increment    105: Step Time =    1.000,SHELL-1,249,-10.9321,7.25,14.2978,ASSEMBLY_SHELL-1_ALLEL,TI,"shell < TI > < 5 section points > : SNEG, (fraction = -1.0)",97.0657
C:/Users/srbb21/AppData/Local/Temp/rx18_gr30001521653382.841.odb,RELAX,Increment    105: Step Time =    1.000,SHELL-1,250,-10.9321,7.75,14.2978,ASSEMBLY_SHELL-1_ALLEL,TI,"shell < TI > < 5 section points > : SPOS, (fraction = 1.0)",107.55
C:/Users/srbb21/AppData/Local/Temp/rx18_gr30001521653382.841.odb,RELAX,Increment    105: Step Time =    1.000,SHELL-1,250,-10.9321,7.75,14.2978,ASSEMBLY_SHELL-1_ALLEL,TI,"shell < TI > < 5 section points > : SNEG, (fraction = -1.0)",89.3643
C:/Users/srbb21/AppData/Local/Temp/rx18_gr30001521653382.841.odb,RELAX,Increment    105: Step Time =    1.000,SHELL-1,251,-10.9321,8.25,14.2978,ASSEMBLY_SHELL-1_ALLEL,TI,"shell < TI > < 5 section points > : SNEG, (fraction = -1.0)",77.3571
C:/Users/srbb21/AppData/Local/Temp/rx18_gr30001521653382.841.odb,RELAX,Increment    105: Step Time =    1.000,SHELL-1,251,-10.9321,8.25,14.2978,ASSEMBLY_SHELL-1_ALLEL,TI,"shell < TI > < 5 section points > : SPOS, (fraction = 1.0)",116.113
C:/Users/srbb21/AppData/Local/Temp/rx18_gr30001521653382.841.odb,RELAX,Increment    105: Step Time =    1.000,SHELL-1,252,-10.9321,8.75,14.2978,ASSEMBLY_SHELL-1_ALLEL,TI,"shell < TI > < 5 section points > : SPOS, (fraction = 1.0)",132.19
C:/Users/srbb21/AppData/Local/Temp/rx18_gr30001521653382.841.odb,RELAX,Increment    105: Step Time =    1.000,SHELL-1,252,-10.9321,8.75,14.2978,ASSEMBLY_SHELL-1_ALLEL,TI,"shell < TI > < 5 section points > : SNEG, (fraction = -1.0)",59.7878
C:/Users/srbb21/AppData/Local/Temp/rx18_gr30001521653382.841.odb,RELAX,Increment    105: Step Time =    1.000,SHELL-1,253,-10.5307,-8.75,14.5959,ASSEMBLY_SHELL-1_ALLEL,TI,"shell < TI > < 5 section points > : SPOS, (fraction = 1.0)",138.673
C:/Users/srbb21/AppData/Local/Temp/rx18_gr30001521653382.841.odb,RELAX,Increment    105: Step Time =    1.000,SHELL-1,253,-10.5307,-8.75,14.5959,ASSEMBLY_SHELL-1_ALLEL,TI,"shell < TI > < 5 section points > : SNEG, (fraction = -1.0)",68.1735
C:/Users/srbb21/AppData/Local/Temp/rx18_gr30001521653382.841.odb,RELAX,Increment    105: Step Time =    1.000,SHELL-1,254,-10.5307,-8.25,14.5959,ASSEMBLY_SHELL-1_ALLEL,TI,"shell < TI > < 5 section points > : SPOS, (fraction = 1.0)",124.294
C:/Users/srbb21/AppData/Local/Temp/rx18_gr30001521653382.841.odb,RELAX,Increment    105: Step Time =    1.000,SHELL-1,254,-10.5307,-8.25,14.5959,ASSEMBLY_SHELL-1_ALLEL,TI,"shell < TI > < 5 section points > : SNEG, (fraction = -1.0)",84.2399
C:/Users/srbb21/AppData/Local/Temp/rx18_gr30001521653382.841.odb,RELAX,Increment    105: Step Time =    1.000,SHELL-1,255,-10.5307,-7.75,14.5959,ASSEMBLY_SHELL-1_ALLEL,TI,"shell < TI > < 5 section points > : SNEG, (fraction = -1.0)",96.0208
C:/Users/srbb21/AppData/Local/Temp/rx18_gr30001521653382.841.odb,RELAX,Increment    105: Step Time =    1.000,SHELL-1,255,-10.5307,-7.75,14.5959,ASSEMBLY_SHELL-1_ALLEL,TI,"shell < TI > < 5 section points > : SPOS, (fraction = 1.0)",115.521
C:/Users/srbb21/AppData/Local/Temp/rx18_gr30001521653382.841.odb,RELAX,Increment    105: Step Time =    1.000,SHELL-1,256,-10.5307,-7.25,14.5959,ASSEMBLY_SHELL-1_ALLEL,TI,"shell < TI > < 5 section points > : SPOS, (fraction = 1.0)",111.468
C:/Users/srbb21/AppData/Local/Temp/rx18_gr30001521653382.841.odb,RELAX,Increment    105: Step Time =    1.000,SHELL-1,256,-10.5307,-7.25,14.5959,ASSEMBLY_SHELL-1_ALLEL,TI,"shell < TI > < 5 section points > : SNEG, (fraction = -1.0)",104.182
C:/Users/srbb21/AppData/Local/Temp/rx18_gr30001521653382.841.odb,RELAX,Increment    105: Step Time =    1.000,SHELL-1,257,-10.5307,-6.75,14.5959,ASSEMBLY_SHELL-1_ALLEL,TI,"shell < TI > < 5 section points > : SPOS, (fraction = 1.0)",110.699
C:/Users/srbb21/AppData/Local/Temp/rx18_gr30001521653382.841.odb,RELAX,Increment    105: Step Time =    1.000,SHELL-1,257,-10.5307,-6.75,14.5959,ASSEMBLY_SHELL-1_ALLEL,TI,"shell < TI > < 5 section points > : SNEG, (fraction = -1.0)",109.506
C:/Users/srbb21/AppData/Local/Temp/rx18_gr30001521653382.841.odb,RELAX,Increment    105: Step Time =    1.000,SHELL-1,258,-10.5307,-6.25,14.5959,ASSEMBLY_SHELL-1_ALLEL,TI,"shell < TI > < 5 section points > : SPOS, (fraction = 1.0)",111.858
C:/Users/srbb21/AppData/Local/Temp/rx18_gr30001521653382.841.odb,RELAX,Increment    105: Step Time =    1.000,SHELL-1,258,-10.5307,-6.25,14.5959,ASSEMBLY_SHELL-1_ALLEL,TI,"shell < TI > < 5 section points > : SNEG, (fraction = -1.0)",112.828
C:/Users/srbb21/AppData/Local/Temp/rx18_gr30001521653382.841.odb,RELAX,Increment    105: Step Time =    1.000,SHELL-1,259,-10.5307,-5.75,14.5959,ASSEMBLY_SHELL-1_ALLEL,TI,"shell < TI > < 5 section points > : SNEG, (fraction = -1.0)",114.808
C:/Users/srbb21/AppData/Local/Temp/rx18_gr30001521653382.841.odb,RELAX,Increment    105: Step Time =    1.000,SHELL-1,259,-10.5307,-5.75,14.5959,ASSEMBLY_SHELL-1_ALLEL,TI,"shell < TI > < 5 section points > : SPOS, (fraction = 1.0)",113.927
C:/Users/srbb21/AppData/Local/Temp/rx18_gr30001521653382.841.odb,RELAX,Increment    105: Step Time =    1.000,SHELL-1,260,-10.5307,-5.25,14.5959,ASSEMBLY_SHELL-1_ALLEL,TI,"shell < TI > < 5 section points > : SPOS, (fraction = 1.0)",116.287
C:/Users/srbb21/AppData/Local/Temp/rx18_gr30001521653382.841.odb,RELAX,Increment    105: Step Time =    1.000,SHELL-1,260,-10.5307,-5.25,14.5959,ASSEMBLY_SHELL-1_ALLEL,TI,"shell < TI > < 5 section points > : SNEG, (fraction = -1.0)",115.946
C:/Users/srbb21/AppData/Local/Temp/rx18_gr30001521653382.841.odb,RELAX,Increment    105: Step Time =    1.000,SHELL-1,261,-10.5307,-4.75,14.5959,ASSEMBLY_SHELL-1_ALLEL,TI,"shell < TI > < 5 section points > : SPOS, (fraction = 1.0)",118.602
C:/Users/srbb21/AppData/Local/Temp/rx18_gr30001521653382.841.odb,RELAX,Increment    105: Step Time =    1.000,SHELL-1,261,-10.5307,-4.75,14.5959,ASSEMBLY_SHELL-1_ALLEL,TI,"shell < TI > < 5 section points > : SNEG, (fraction = -1.0)",116.585
C:/Users/srbb21/AppData/Local/Temp/rx18_gr30001521653382.841.odb,RELAX,Increment    105: Step Time =    1.000,SHELL-1,262,-10.5307,-4.25,14.5959,ASSEMBLY_SHELL-1_ALLEL,TI,"shell < TI > < 5 section points > : SPOS, (fraction = 1.0)",120.728
C:/Users/srbb21/AppData/Local/Temp/rx18_gr30001521653382.841.odb,RELAX,Increment    105: Step Time =    1.000,SHELL-1,262,-10.5307,-4.25,14.5959,ASSEMBLY_SHELL-1_ALLEL,TI,"shell < TI > < 5 section points > : SNEG, (fraction = -1.0)",116.933
C:/Users/srbb21/AppData/Local/Temp/rx18_gr30001521653382.841.odb,RELAX,Increment    105: Step Time =    1.000,SHELL-1,263,-10.5307,-3.75,14.5959,ASSEMBLY_SHELL-1_ALLEL,TI,"shell < TI > < 5 section points > : SNEG, (fraction = -1.0)",117.123
C:/Users/srbb21/AppData/Local/Temp/rx18_gr30001521653382.841.odb,RELAX,Increment    105: Step Time =    1.000,SHELL-1,263,-10.5307,-3.75,14.5959,ASSEMBLY_SHELL-1_ALLEL,TI,"shell < TI > < 5 section points > : SPOS, (fraction = 1.0)",122.603
C:/Users/srbb21/AppData/Local/Temp/rx18_gr30001521653382.841.odb,RELAX,Increment    105: Step Time =    1.000,SHELL-1,264,-10.5307,-3.25,14.5959,ASSEMBLY_SHELL-1_ALLEL,TI,"shell < TI > < 5 section points > : SPOS, (fraction = 1.0)",124.221
C:/Users/srbb21/AppData/Local/Temp/rx18_gr30001521653382.841.odb,RELAX,Increment    105: Step Time =    1.000,SHELL-1,264,-10.5307,-3.25,14.5959,ASSEMBLY_SHELL-1_ALLEL,TI,"shell < TI > < 5 section points > : SNEG, (fraction = -1.0)",117.22
C:/Users/srbb21/AppData/Local/Temp/rx18_gr30001521653382.841.odb,RELAX,Increment    105: Step Time =    1.000,SHELL-1,265,-10.5307,-2.75,14.5959,ASSEMBLY_SHELL-1_ALLEL,TI,"shell < TI > < 5 section points > : SPOS, (fraction = 1.0)",125.582
C:/Users/srbb21/AppData/Local/Temp/rx18_gr30001521653382.841.odb,RELAX,Increment    105: Step Time =    1.000,SHELL-1,265,-10.5307,-2.75,14.5959,ASSEMBLY_SHELL-1_ALLEL,TI,"shell < TI > < 5 section points > : SNEG, (fraction = -1.0)",117.268
C:/Users/srbb21/AppData/Local/Temp/rx18_gr30001521653382.841.odb,RELAX,Increment    105: Step Time =    1.000,SHELL-1,266,-10.5307,-2.25,14.5959,ASSEMBLY_SHELL-1_ALLEL,TI,"shell < TI > < 5 section points > : SPOS, (fraction = 1.0)",126.701
C:/Users/srbb21/AppData/Local/Temp/rx18_gr30001521653382.841.odb,RELAX,Increment    105: Step Time =    1.000,SHELL-1,266,-10.5307,-2.25,14.5959,ASSEMBLY_SHELL-1_ALLEL,TI,"shell < TI > < 5 section points > : SNEG, (fraction = -1.0)",117.283
C:/Users/srbb21/AppData/Local/Temp/rx18_gr30001521653382.841.odb,RELAX,Increment    105: Step Time =    1.000,SHELL-1,267,-10.5307,-1.75,14.5959,ASSEMBLY_SHELL-1_ALLEL,TI,"shell < TI > < 5 section points > : SNEG, (fraction = -1.0)",117.283
C:/Users/srbb21/AppData/Local/Temp/rx18_gr30001521653382.841.odb,RELAX,Increment    105: Step Time =    1.000,SHELL-1,267,-10.5307,-1.75,14.5959,ASSEMBLY_SHELL-1_ALLEL,TI,"shell < TI > < 5 section points > : SPOS, (fraction = 1.0)",127.585
C:/Users/srbb21/AppData/Local/Temp/rx18_gr30001521653382.841.odb,RELAX,Increment    105: Step Time =    1.000,SHELL-1,268,-10.5307,-1.25,14.5959,ASSEMBLY_SHELL-1_ALLEL,TI,"shell < TI > < 5 section points > : SPOS, (fraction = 1.0)",128.241
C:/Users/srbb21/AppData/Local/Temp/rx18_gr30001521653382.841.odb,RELAX,Increment    105: Step Time =    1.000,SHELL-1,268,-10.5307,-1.25,14.5959,ASSEMBLY_SHELL-1_ALLEL,TI,"shell < TI > < 5 section points > : SNEG, (fraction = -1.0)",117.274
C:/Users/srbb21/AppData/Local/Temp/rx18_gr30001521653382.841.odb,RELAX,Increment    105: Step Time =    1.000,SHELL-1,269,-10.5307,-0.75,14.5959,ASSEMBLY_SHELL-1_ALLEL,TI,"shell < TI > < 5 section points > : SPOS, (fraction = 1.0)",128.676
C:/Users/srbb21/AppData/Local/Temp/rx18_gr30001521653382.841.odb,RELAX,Increment    105: Step Time =    1.000,SHELL-1,269,-10.5307,-0.75,14.5959,ASSEMBLY_SHELL-1_ALLEL,TI,"shell < TI > < 5 section points > : SNEG, (fraction = -1.0)",117.264
C:/Users/srbb21/AppData/Local/Temp/rx18_gr30001521653382.841.odb,RELAX,Increment    105: Step Time =    1.000,SHELL-1,270,-10.5307,-0.25,14.5959,ASSEMBLY_SHELL-1_ALLEL,TI,"shell < TI > < 5 section points > : SPOS, (fraction = 1.0)",128.892
C:/Users/srbb21/AppData/Local/Temp/rx18_gr30001521653382.841.odb,RELAX,Increment    105: Step Time =    1.000,SHELL-1,270,-10.5307,-0.25,14.5959,ASSEMBLY_SHELL-1_ALLEL,TI,"shell < TI > < 5 section points > : SNEG, (fraction = -1.0)",117.258
C:/Users/srbb21/AppData/Local/Temp/rx18_gr30001521653382.841.odb,RELAX,Increment    105: Step Time =    1.000,SHELL-1,271,-10.5307,0.25,14.5959,ASSEMBLY_SHELL-1_ALLEL,TI,"shell < TI > < 5 section points > : SNEG, (fraction = -1.0)",117.258
C:/Users/srbb21/AppData/Local/Temp/rx18_gr30001521653382.841.odb,RELAX,Increment    105: Step Time =    1.000,SHELL-1,271,-10.5307,0.25,14.5959,ASSEMBLY_SHELL-1_ALLEL,TI,"shell < TI > < 5 section points > : SPOS, (fraction = 1.0)",128.892
C:/Users/srbb21/AppData/Local/Temp/rx18_gr30001521653382.841.odb,RELAX,Increment    105: Step Time =    1.000,SHELL-1,272,-10.5307,0.75,14.5959,ASSEMBLY_SHELL-1_ALLEL,TI,"shell < TI > < 5 section points > : SPOS, (fraction = 1.0)",128.676
C:/Users/srbb21/AppData/Local/Temp/rx18_gr30001521653382.841.odb,RELAX,Increment    105: Step Time =    1.000,SHELL-1,272,-10.5307,0.75,14.5959,ASSEMBLY_SHELL-1_ALLEL,TI,"shell < TI > < 5 section points > : SNEG, (fraction = -1.0)",117.264
C:/Users/srbb21/AppData/Local/Temp/rx18_gr30001521653382.841.odb,RELAX,Increment    105: Step Time =    1.000,SHELL-1,273,-10.5307,1.25,14.5959,ASSEMBLY_SHELL-1_ALLEL,TI,"shell < TI > < 5 section points > : SPOS, (fraction = 1.0)",128.241
C:/Users/srbb21/AppData/Local/Temp/rx18_gr30001521653382.841.odb,RELAX,Increment    105: Step Time =    1.000,SHELL-1,273,-10.5307,1.25,14.5959,ASSEMBLY_SHELL-1_ALLEL,TI,"shell < TI > < 5 section points > : SNEG, (fraction = -1.0)",117.274
C:/Users/srbb21/AppData/Local/Temp/rx18_gr30001521653382.841.odb,RELAX,Increment    105: Step Time =    1.000,SHELL-1,274,-10.5307,1.75,14.5959,ASSEMBLY_SHELL-1_ALLEL,TI,"shell < TI > < 5 section points > : SPOS, (fraction = 1.0)",127.585
C:/Users/srbb21/AppData/Local/Temp/rx18_gr30001521653382.841.odb,RELAX,Increment    105: Step Time =    1.000,SHELL-1,274,-10.5307,1.75,14.5959,ASSEMBLY_SHELL-1_ALLEL,TI,"shell < TI > < 5 section points > : SNEG, (fraction = -1.0)",117.283
C:/Users/srbb21/AppData/Local/Temp/rx18_gr30001521653382.841.odb,RELAX,Increment    105: Step Time =    1.000,SHELL-1,275,-10.5307,2.25,14.5959,ASSEMBLY_SHELL-1_ALLEL,TI,"shell < TI > < 5 section points > : SPOS, (fraction = 1.0)",126.701
C:/Users/srbb21/AppData/Local/Temp/rx18_gr30001521653382.841.odb,RELAX,Increment    105: Step Time =    1.000,SHELL-1,275,-10.5307,2.25,14.5959,ASSEMBLY_SHELL-1_ALLEL,TI,"shell < TI > < 5 section points > : SNEG, (fraction = -1.0)",117.283
C:/Users/srbb21/AppData/Local/Temp/rx18_gr30001521653382.841.odb,RELAX,Increment    105: Step Time =    1.000,SHELL-1,276,-10.5307,2.75,14.5959,ASSEMBLY_SHELL-1_ALLEL,TI,"shell < TI > < 5 section points > : SNEG, (fraction = -1.0)",117.268
C:/Users/srbb21/AppData/Local/Temp/rx18_gr30001521653382.841.odb,RELAX,Increment    105: Step Time =    1.000,SHELL-1,276,-10.5307,2.75,14.5959,ASSEMBLY_SHELL-1_ALLEL,TI,"shell < TI > < 5 section points > : SPOS, (fraction = 1.0)",125.582
C:/Users/srbb21/AppData/Local/Temp/rx18_gr30001521653382.841.odb,RELAX,Increment    105: Step Time =    1.000,SHELL-1,277,-10.5307,3.25,14.5959,ASSEMBLY_SHELL-1_ALLEL,TI,"shell < TI > < 5 section points > : SPOS, (fraction = 1.0)",124.221
C:/Users/srbb21/AppData/Local/Temp/rx18_gr30001521653382.841.odb,RELAX,Increment    105: Step Time =    1.000,SHELL-1,277,-10.5307,3.25,14.5959,ASSEMBLY_SHELL-1_ALLEL,TI,"shell < TI > < 5 section points > : SNEG, (fraction = -1.0)",117.22
C:/Users/srbb21/AppData/Local/Temp/rx18_gr30001521653382.841.odb,RELAX,Increment    105: Step Time =    1.000,SHELL-1,278,-10.5307,3.75,14.5959,ASSEMBLY_SHELL-1_ALLEL,TI,"shell < TI > < 5 section points > : SPOS, (fraction = 1.0)",122.603
C:/Users/srbb21/AppData/Local/Temp/rx18_gr30001521653382.841.odb,RELAX,Increment    105: Step Time =    1.000,SHELL-1,278,-10.5307,3.75,14.5959,ASSEMBLY_SHELL-1_ALLEL,TI,"shell < TI > < 5 section points > : SNEG, (fraction = -1.0)",117.123
C:/Users/srbb21/AppData/Local/Temp/rx18_gr30001521653382.841.odb,RELAX,Increment    105: Step Time =    1.000,SHELL-1,279,-10.5307,4.25,14.5959,ASSEMBLY_SHELL-1_ALLEL,TI,"shell < TI > < 5 section points > : SPOS, (fraction = 1.0)",120.728
C:/Users/srbb21/AppData/Local/Temp/rx18_gr30001521653382.841.odb,RELAX,Increment    105: Step Time =    1.000,SHELL-1,279,-10.5307,4.25,14.5959,ASSEMBLY_SHELL-1_ALLEL,TI,"shell < TI > < 5 section points > : SNEG, (fraction = -1.0)",116.933
C:/Users/srbb21/AppData/Local/Temp/rx18_gr30001521653382.841.odb,RELAX,Increment    105: Step Time =    1.000,SHELL-1,280,-10.5307,4.75,14.5959,ASSEMBLY_SHELL-1_ALLEL,TI,"shell < TI > < 5 section points > : SNEG, (fraction = -1.0)",116.585
C:/Users/srbb21/AppData/Local/Temp/rx18_gr30001521653382.841.odb,RELAX,Increment    105: Step Time =    1.000,SHELL-1,280,-10.5307,4.75,14.5959,ASSEMBLY_SHELL-1_ALLEL,TI,"shell < TI > < 5 section points > : SPOS, (fraction = 1.0)",118.602
C:/Users/srbb21/AppData/Local/Temp/rx18_gr30001521653382.841.odb,RELAX,Increment    105: Step Time =    1.000,SHELL-1,281,-10.5307,5.25,14.5959,ASSEMBLY_SHELL-1_ALLEL,TI,"shell < TI > < 5 section points > : SPOS, (fraction = 1.0)",116.287
C:/Users/srbb21/AppData/Local/Temp/rx18_gr30001521653382.841.odb,RELAX,Increment    105: Step Time =    1.000,SHELL-1,281,-10.5307,5.25,14.5959,ASSEMBLY_SHELL-1_ALLEL,TI,"shell < TI > < 5 section points > : SNEG, (fraction = -1.0)",115.946
C:/Users/srbb21/AppData/Local/Temp/rx18_gr30001521653382.841.odb,RELAX,Increment    105: Step Time =    1.000,SHELL-1,282,-10.5307,5.75,14.5959,ASSEMBLY_SHELL-1_ALLEL,TI,"shell < TI > < 5 section points > : SPOS, (fraction = 1.0)",113.927
C:/Users/srbb21/AppData/Local/Temp/rx18_gr30001521653382.841.odb,RELAX,Increment    105: Step Time =    1.000,SHELL-1,282,-10.5307,5.75,14.5959,ASSEMBLY_SHELL-1_ALLEL,TI,"shell < TI > < 5 section points > : SNEG, (fraction = -1.0)",114.808
C:/Users/srbb21/AppData/Local/Temp/rx18_gr30001521653382.841.odb,RELAX,Increment    105: Step Time =    1.000,SHELL-1,283,-10.5307,6.25,14.5959,ASSEMBLY_SHELL-1_ALLEL,TI,"shell < TI > < 5 section points > : SPOS, (fraction = 1.0)",111.858
C:/Users/srbb21/AppData/Local/Temp/rx18_gr30001521653382.841.odb,RELAX,Increment    105: Step Time =    1.000,SHELL-1,283,-10.5307,6.25,14.5959,ASSEMBLY_SHELL-1_ALLEL,TI,"shell < TI > < 5 section points > : SNEG, (fraction = -1.0)",112.828
C:/Users/srbb21/AppData/Local/Temp/rx18_gr30001521653382.841.odb,RELAX,Increment    105: Step Time =    1.000,SHELL-1,284,-10.5307,6.75,14.5959,ASSEMBLY_SHELL-1_ALLEL,TI,"shell < TI > < 5 section points > : SNEG, (fraction = -1.0)",109.506
C:/Users/srbb21/AppData/Local/Temp/rx18_gr30001521653382.841.odb,RELAX,Increment    105: Step Time =    1.000,SHELL-1,284,-10.5307,6.75,14.5959,ASSEMBLY_SHELL-1_ALLEL,TI,"shell < TI > < 5 section points > : SPOS, (fraction = 1.0)",110.699
C:/Users/srbb21/AppData/Local/Temp/rx18_gr30001521653382.841.odb,RELAX,Increment    105: Step Time =    1.000,SHELL-1,285,-10.5307,7.25,14.5959,ASSEMBLY_SHELL-1_ALLEL,TI,"shell < TI > < 5 section points > : SPOS, (fraction = 1.0)",111.468
C:/Users/srbb21/AppData/Local/Temp/rx18_gr30001521653382.841.odb,RELAX,Increment    105: Step Time =    1.000,SHELL-1,285,-10.5307,7.25,14.5959,ASSEMBLY_SHELL-1_ALLEL,TI,"shell < TI > < 5 section points > : SNEG, (fraction = -1.0)",104.182
C:/Users/srbb21/AppData/Local/Temp/rx18_gr30001521653382.841.odb,RELAX,Increment    105: Step Time =    1.000,SHELL-1,286,-10.5307,7.75,14.5959,ASSEMBLY_SHELL-1_ALLEL,TI,"shell < TI > < 5 section points > : SPOS, (fraction = 1.0)",115.521
C:/Users/srbb21/AppData/Local/Temp/rx18_gr30001521653382.841.odb,RELAX,Increment    105: Step Time =    1.000,SHELL-1,286,-10.5307,7.75,14.5959,ASSEMBLY_SHELL-1_ALLEL,TI,"shell < TI > < 5 section points > : SNEG, (fraction = -1.0)",96.0208
C:/Users/srbb21/AppData/Local/Temp/rx18_gr30001521653382.841.odb,RELAX,Increment    105: Step Time =    1.000,SHELL-1,287,-10.5307,8.25,14.5959,ASSEMBLY_SHELL-1_ALLEL,TI,"shell < TI > < 5 section points > : SPOS, (fraction = 1.0)",124.294
C:/Users/srbb21/AppData/Local/Temp/rx18_gr30001521653382.841.odb,RELAX,Increment    105: Step Time =    1.000,SHELL-1,287,-10.5307,8.25,14.5959,ASSEMBLY_SHELL-1_ALLEL,TI,"shell < TI > < 5 section points > : SNEG, (fraction = -1.0)",84.2399
C:/Users/srbb21/AppData/Local/Temp/rx18_gr30001521653382.841.odb,RELAX,Increment    105: Step Time =    1.000,SHELL-1,288,-10.5307,8.75,14.5959,ASSEMBLY_SHELL-1_ALLEL,TI,"shell < TI > < 5 section points > : SNEG, (fraction = -1.0)",68.1735
C:/Users/srbb21/AppData/Local/Temp/rx18_gr30001521653382.841.odb,RELAX,Increment    105: Step Time =    1.000,SHELL-1,288,-10.5307,8.75,14.5959,ASSEMBLY_SHELL-1_ALLEL,TI,"shell < TI > < 5 section points > : SPOS, (fraction = 1.0)",138.673
C:/Users/srbb21/AppData/Local/Temp/rx18_gr30001521653382.841.odb,RELAX,Increment    105: Step Time =    1.000,SHELL-1,289,-10.1213,-8.75,14.8828,ASSEMBLY_SHELL-1_ALLEL,TI,"shell < TI > < 5 section points > : SPOS, (fraction = 1.0)",142.449
C:/Users/srbb21/AppData/Local/Temp/rx18_gr30001521653382.841.odb,RELAX,Increment    105: Step Time =    1.000,SHELL-1,289,-10.1213,-8.75,14.8828,ASSEMBLY_SHELL-1_ALLEL,TI,"shell < TI > < 5 section points > : SNEG, (fraction = -1.0)",75.3975
C:/Users/srbb21/AppData/Local/Temp/rx18_gr30001521653382.841.odb,RELAX,Increment    105: Step Time =    1.000,SHELL-1,290,-10.1213,-8.25,14.8828,ASSEMBLY_SHELL-1_ALLEL,TI,"shell < TI > < 5 section points > : SPOS, (fraction = 1.0)",129.985
C:/Users/srbb21/AppData/Local/Temp/rx18_gr30001521653382.841.odb,RELAX,Increment    105: Step Time =    1.000,SHELL-1,290,-10.1213,-8.25,14.8828,ASSEMBLY_SHELL-1_ALLEL,TI,"shell < TI > < 5 section points > : SNEG, (fraction = -1.0)",89.7261
C:/Users/srbb21/AppData/Local/Temp/rx18_gr30001521653382.841.odb,RELAX,Increment    105: Step Time =    1.000,SHELL-1,291,-10.1213,-7.75,14.8828,ASSEMBLY_SHELL-1_ALLEL,TI,"shell < TI > < 5 section points > : SPOS, (fraction = 1.0)",121.568
C:/Users/srbb21/AppData/Local/Temp/rx18_gr30001521653382.841.odb,RELAX,Increment    105: Step Time =    1.000,SHELL-1,291,-10.1213,-7.75,14.8828,ASSEMBLY_SHELL-1_ALLEL,TI,"shell < TI > < 5 section points > : SNEG, (fraction = -1.0)",100.909
C:/Users/srbb21/AppData/Local/Temp/rx18_gr30001521653382.841.odb,RELAX,Increment    105: Step Time =    1.000,SHELL-1,292,-10.1213,-7.25,14.8828,ASSEMBLY_SHELL-1_ALLEL,TI,"shell < TI > < 5 section points > : SPOS, (fraction = 1.0)",116.892
C:/Users/srbb21/AppData/Local/Temp/rx18_gr30001521653382.841.odb,RELAX,Increment    105: Step Time =    1.000,SHELL-1,292,-10.1213,-7.25,14.8828,ASSEMBLY_SHELL-1_ALLEL,TI,"shell < TI > < 5 section points > : SNEG, (fraction = -1.0)",109.144
C:/Users/srbb21/AppData/Local/Temp/rx18_gr30001521653382.841.odb,RELAX,Increment    105: Step Time =    1.000,SHELL-1,293,-10.1213,-6.75,14.8828,ASSEMBLY_SHELL-1_ALLEL,TI,"shell < TI > < 5 section points > : SNEG, (fraction = -1.0)",114.884
C:/Users/srbb21/AppData/Local/Temp/rx18_gr30001521653382.841.odb,RELAX,Increment    105: Step Time =    1.000,SHELL-1,293,-10.1213,-6.75,14.8828,ASSEMBLY_SHELL-1_ALLEL,TI,"shell < TI > < 5 section points > : SPOS, (fraction = 1.0)",115.115
C:/Users/srbb21/AppData/Local/Temp/rx18_gr30001521653382.841.odb,RELAX,Increment    105: Step Time =    1.000,SHELL-1,294,-10.1213,-6.25,14.8828,ASSEMBLY_SHELL-1_ALLEL,TI,"shell < TI > < 5 section points > : SPOS, (fraction = 1.0)",115.319
C:/Users/srbb21/AppData/Local/Temp/rx18_gr30001521653382.841.odb,RELAX,Increment    105: Step Time =    1.000,SHELL-1,294,-10.1213,-6.25,14.8828,ASSEMBLY_SHELL-1_ALLEL,TI,"shell < TI > < 5 section points > : SNEG, (fraction = -1.0)",118.705
C:/Users/srbb21/AppData/Local/Temp/rx18_gr30001521653382.841.odb,RELAX,Increment    105: Step Time =    1.000,SHELL-1,295,-10.1213,-5.75,14.8828,ASSEMBLY_SHELL-1_ALLEL,TI,"shell < TI > < 5 section points > : SPOS, (fraction = 1.0)",116.669
C:/Users/srbb21/AppData/Local/Temp/rx18_gr30001521653382.841.odb,RELAX,Increment    105: Step Time =    1.000,SHELL-1,295,-10.1213,-5.75,14.8828,ASSEMBLY_SHELL-1_ALLEL,TI,"shell < TI > < 5 section points > : SNEG, (fraction = -1.0)",121.139
C:/Users/srbb21/AppData/Local/Temp/rx18_gr30001521653382.841.odb,RELAX,Increment    105: Step Time =    1.000,SHELL-1,296,-10.1213,-5.25,14.8828,ASSEMBLY_SHELL-1_ALLEL,TI,"shell < TI > < 5 section points > : SPOS, (fraction = 1.0)",118.586
C:/Users/srbb21/AppData/Local/Temp/rx18_gr30001521653382.841.odb,RELAX,Increment    105: Step Time =    1.000,SHELL-1,296,-10.1213,-5.25,14.8828,ASSEMBLY_SHELL-1_ALLEL,TI,"shell < TI > < 5 section points > : SNEG, (fraction = -1.0)",122.626
C:/Users/srbb21/AppData/Local/Temp/rx18_gr30001521653382.841.odb,RELAX,Increment    105: Step Time =    1.000,SHELL-1,297,-10.1213,-4.75,14.8828,ASSEMBLY_SHELL-1_ALLEL,TI,"shell < TI > < 5 section points > : SNEG, (fraction = -1.0)",123.494
C:/Users/srbb21/AppData/Local/Temp/rx18_gr30001521653382.841.odb,RELAX,Increment    105: Step Time =    1.000,SHELL-1,297,-10.1213,-4.75,14.8828,ASSEMBLY_SHELL-1_ALLEL,TI,"shell < TI > < 5 section points > : SPOS, (fraction = 1.0)",120.694
C:/Users/srbb21/AppData/Local/Temp/rx18_gr30001521653382.841.odb,RELAX,Increment    105: Step Time =    1.000,SHELL-1,298,-10.1213,-4.25,14.8828,ASSEMBLY_SHELL-1_ALLEL,TI,"shell < TI > < 5 section points > : SPOS, (fraction = 1.0)",122.777
C:/Users/srbb21/AppData/Local/Temp/rx18_gr30001521653382.841.odb,RELAX,Increment    105: Step Time =    1.000,SHELL-1,298,-10.1213,-4.25,14.8828,ASSEMBLY_SHELL-1_ALLEL,TI,"shell < TI > < 5 section points > : SNEG, (fraction = -1.0)",123.978
C:/Users/srbb21/AppData/Local/Temp/rx18_gr30001521653382.841.odb,RELAX,Increment    105: Step Time =    1.000,SHELL-1,299,-10.1213,-3.75,14.8828,ASSEMBLY_SHELL-1_ALLEL,TI,"shell < TI > < 5 section points > : SPOS, (fraction = 1.0)",124.72
C:/Users/srbb21/AppData/Local/Temp/rx18_gr30001521653382.841.odb,RELAX,Increment    105: Step Time =    1.000,SHELL-1,299,-10.1213,-3.75,14.8828,ASSEMBLY_SHELL-1_ALLEL,TI,"shell < TI > < 5 section points > : SNEG, (fraction = -1.0)",124.227
C:/Users/srbb21/AppData/Local/Temp/rx18_gr30001521653382.841.odb,RELAX,Increment    105: Step Time =    1.000,SHELL-1,300,-10.1213,-3.25,14.8828,ASSEMBLY_SHELL-1_ALLEL,TI,"shell < TI > < 5 section points > : SPOS, (fraction = 1.0)",126.461
C:/Users/srbb21/AppData/Local/Temp/rx18_gr30001521653382.841.odb,RELAX,Increment    105: Step Time =    1.000,SHELL-1,300,-10.1213,-3.25,14.8828,ASSEMBLY_SHELL-1_ALLEL,TI,"shell < TI > < 5 section points > : SNEG, (fraction = -1.0)",124.342
C:/Users/srbb21/AppData/Local/Temp/rx18_gr30001521653382.841.odb,RELAX,Increment    105: Step Time =    1.000,SHELL-1,301,-10.1213,-2.75,14.8828,ASSEMBLY_SHELL-1_ALLEL,TI,"shell < TI > < 5 section points > : SNEG, (fraction = -1.0)",124.378
C:/Users/srbb21/AppData/Local/Temp/rx18_gr30001521653382.841.odb,RELAX,Increment    105: Step Time =    1.000,SHELL-1,301,-10.1213,-2.75,14.8828,ASSEMBLY_SHELL-1_ALLEL,TI,"shell < TI > < 5 section points > : SPOS, (fraction = 1.0)",127.974
C:/Users/srbb21/AppData/Local/Temp/rx18_gr30001521653382.841.odb,RELAX,Increment    105: Step Time =    1.000,SHELL-1,302,-10.1213,-2.25,14.8828,ASSEMBLY_SHELL-1_ALLEL,TI,"shell < TI > < 5 section points > : SPOS, (fraction = 1.0)",129.24
C:/Users/srbb21/AppData/Local/Temp/rx18_gr30001521653382.841.odb,RELAX,Increment    105: Step Time =    1.000,SHELL-1,302,-10.1213,-2.25,14.8828,ASSEMBLY_SHELL-1_ALLEL,TI,"shell < TI > < 5 section points > : SNEG, (fraction = -1.0)",124.373
C:/Users/srbb21/AppData/Local/Temp/rx18_gr30001521653382.841.odb,RELAX,Increment    105: Step Time =    1.000,SHELL-1,303,-10.1213,-1.75,14.8828,ASSEMBLY_SHELL-1_ALLEL,TI,"shell < TI > < 5 section points > : SPOS, (fraction = 1.0)",130.257
C:/Users/srbb21/AppData/Local/Temp/rx18_gr30001521653382.841.odb,RELAX,Increment    105: Step Time =    1.000,SHELL-1,303,-10.1213,-1.75,14.8828,ASSEMBLY_SHELL-1_ALLEL,TI,"shell < TI > < 5 section points > : SNEG, (fraction = -1.0)",124.349
C:/Users/srbb21/AppData/Local/Temp/rx18_gr30001521653382.841.odb,RELAX,Increment    105: Step Time =    1.000,SHELL-1,304,-10.1213,-1.25,14.8828,ASSEMBLY_SHELL-1_ALLEL,TI,"shell < TI > < 5 section points > : SPOS, (fraction = 1.0)",131.019
C:/Users/srbb21/AppData/Local/Temp/rx18_gr30001521653382.841.odb,RELAX,Increment    105: Step Time =    1.000,SHELL-1,304,-10.1213,-1.25,14.8828,ASSEMBLY_SHELL-1_ALLEL,TI,"shell < TI > < 5 section points > : SNEG, (fraction = -1.0)",124.32
C:/Users/srbb21/AppData/Local/Temp/rx18_gr30001521653382.841.odb,RELAX,Increment    105: Step Time =    1.000,SHELL-1,305,-10.1213,-0.75,14.8828,ASSEMBLY_SHELL-1_ALLEL,TI,"shell < TI > < 5 section points > : SNEG, (fraction = -1.0)",124.295
C:/Users/srbb21/AppData/Local/Temp/rx18_gr30001521653382.841.odb,RELAX,Increment    105: Step Time =    1.000,SHELL-1,305,-10.1213,-0.75,14.8828,ASSEMBLY_SHELL-1_ALLEL,TI,"shell < TI > < 5 section points > : SPOS, (fraction = 1.0)",131.528
C:/Users/srbb21/AppData/Local/Temp/rx18_gr30001521653382.841.odb,RELAX,Increment    105: Step Time =    1.000,SHELL-1,306,-10.1213,-0.25,14.8828,ASSEMBLY_SHELL-1_ALLEL,TI,"shell < TI > < 5 section points > : SPOS, (fraction = 1.0)",131.782
C:/Users/srbb21/AppData/Local/Temp/rx18_gr30001521653382.841.odb,RELAX,Increment    105: Step Time =    1.000,SHELL-1,306,-10.1213,-0.25,14.8828,ASSEMBLY_SHELL-1_ALLEL,TI,"shell < TI > < 5 section points > : SNEG, (fraction = -1.0)",124.282
C:/Users/srbb21/AppData/Local/Temp/rx18_gr30001521653382.841.odb,RELAX,Increment    105: Step Time =    1.000,SHELL-1,307,-10.1213,0.25,14.8828,ASSEMBLY_SHELL-1_ALLEL,TI,"shell < TI > < 5 section points > : SPOS, (fraction = 1.0)",131.782
C:/Users/srbb21/AppData/Local/Temp/rx18_gr30001521653382.841.odb,RELAX,Increment    105: Step Time =    1.000,SHELL-1,307,-10.1213,0.25,14.8828,ASSEMBLY_SHELL-1_ALLEL,TI,"shell < TI > < 5 section points > : SNEG, (fraction = -1.0)",124.282
C:/Users/srbb21/AppData/Local/Temp/rx18_gr30001521653382.841.odb,RELAX,Increment    105: Step Time =    1.000,SHELL-1,308,-10.1213,0.75,14.8828,ASSEMBLY_SHELL-1_ALLEL,TI,"shell < TI > < 5 section points > : SPOS, (fraction = 1.0)",131.528
C:/Users/srbb21/AppData/Local/Temp/rx18_gr30001521653382.841.odb,RELAX,Increment    105: Step Time =    1.000,SHELL-1,308,-10.1213,0.75,14.8828,ASSEMBLY_SHELL-1_ALLEL,TI,"shell < TI > < 5 section points > : SNEG, (fraction = -1.0)",124.295
C:/Users/srbb21/AppData/Local/Temp/rx18_gr30001521653382.841.odb,RELAX,Increment    105: Step Time =    1.000,SHELL-1,309,-10.1213,1.25,14.8828,ASSEMBLY_SHELL-1_ALLEL,TI,"shell < TI > < 5 section points > : SPOS, (fraction = 1.0)",131.019
C:/Users/srbb21/AppData/Local/Temp/rx18_gr30001521653382.841.odb,RELAX,Increment    105: Step Time =    1.000,SHELL-1,309,-10.1213,1.25,14.8828,ASSEMBLY_SHELL-1_ALLEL,TI,"shell < TI > < 5 section points > : SNEG, (fraction = -1.0)",124.32
C:/Users/srbb21/AppData/Local/Temp/rx18_gr30001521653382.841.odb,RELAX,Increment    105: Step Time =    1.000,SHELL-1,310,-10.1213,1.75,14.8828,ASSEMBLY_SHELL-1_ALLEL,TI,"shell < TI > < 5 section points > : SNEG, (fraction = -1.0)",124.349
C:/Users/srbb21/AppData/Local/Temp/rx18_gr30001521653382.841.odb,RELAX,Increment    105: Step Time =    1.000,SHELL-1,310,-10.1213,1.75,14.8828,ASSEMBLY_SHELL-1_ALLEL,TI,"shell < TI > < 5 section points > : SPOS, (fraction = 1.0)",130.257
C:/Users/srbb21/AppData/Local/Temp/rx18_gr30001521653382.841.odb,RELAX,Increment    105: Step Time =    1.000,SHELL-1,311,-10.1213,2.25,14.8828,ASSEMBLY_SHELL-1_ALLEL,TI,"shell < TI > < 5 section points > : SPOS, (fraction = 1.0)",129.24
C:/Users/srbb21/AppData/Local/Temp/rx18_gr30001521653382.841.odb,RELAX,Increment    105: Step Time =    1.000,SHELL-1,311,-10.1213,2.25,14.8828,ASSEMBLY_SHELL-1_ALLEL,TI,"shell < TI > < 5 section points > : SNEG, (fraction = -1.0)",124.373
C:/Users/srbb21/AppData/Local/Temp/rx18_gr30001521653382.841.odb,RELAX,Increment    105: Step Time =    1.000,SHELL-1,312,-10.1213,2.75,14.8828,ASSEMBLY_SHELL-1_ALLEL,TI,"shell < TI > < 5 section points > : SPOS, (fraction = 1.0)",127.974
C:/Users/srbb21/AppData/Local/Temp/rx18_gr30001521653382.841.odb,RELAX,Increment    105: Step Time =    1.000,SHELL-1,312,-10.1213,2.75,14.8828,ASSEMBLY_SHELL-1_ALLEL,TI,"shell < TI > < 5 section points > : SNEG, (fraction = -1.0)",124.378
C:/Users/srbb21/AppData/Local/Temp/rx18_gr30001521653382.841.odb,RELAX,Increment    105: Step Time =    1.000,SHELL-1,313,-10.1213,3.25,14.8828,ASSEMBLY_SHELL-1_ALLEL,TI,"shell < TI > < 5 section points > : SPOS, (fraction = 1.0)",126.461
C:/Users/srbb21/AppData/Local/Temp/rx18_gr30001521653382.841.odb,RELAX,Increment    105: Step Time =    1.000,SHELL-1,313,-10.1213,3.25,14.8828,ASSEMBLY_SHELL-1_ALLEL,TI,"shell < TI > < 5 section points > : SNEG, (fraction = -1.0)",124.342
C:/Users/srbb21/AppData/Local/Temp/rx18_gr30001521653382.841.odb,RELAX,Increment    105: Step Time =    1.000,SHELL-1,314,-10.1213,3.75,14.8828,ASSEMBLY_SHELL-1_ALLEL,TI,"shell < TI > < 5 section points > : SNEG, (fraction = -1.0)",124.227
C:/Users/srbb21/AppData/Local/Temp/rx18_gr30001521653382.841.odb,RELAX,Increment    105: Step Time =    1.000,SHELL-1,314,-10.1213,3.75,14.8828,ASSEMBLY_SHELL-1_ALLEL,TI,"shell < TI > < 5 section points > : SPOS, (fraction = 1.0)",124.72
C:/Users/srbb21/AppData/Local/Temp/rx18_gr30001521653382.841.odb,RELAX,Increment    105: Step Time =    1.000,SHELL-1,315,-10.1213,4.25,14.8828,ASSEMBLY_SHELL-1_ALLEL,TI,"shell < TI > < 5 section points > : SPOS, (fraction = 1.0)",122.777
C:/Users/srbb21/AppData/Local/Temp/rx18_gr30001521653382.841.odb,RELAX,Increment    105: Step Time =    1.000,SHELL-1,315,-10.1213,4.25,14.8828,ASSEMBLY_SHELL-1_ALLEL,TI,"shell < TI > < 5 section points > : SNEG, (fraction = -1.0)",123.978
C:/Users/srbb21/AppData/Local/Temp/rx18_gr30001521653382.841.odb,RELAX,Increment    105: Step Time =    1.000,SHELL-1,316,-10.1213,4.75,14.8828,ASSEMBLY_SHELL-1_ALLEL,TI,"shell < TI > < 5 section points > : SPOS, (fraction = 1.0)",120.694
C:/Users/srbb21/AppData/Local/Temp/rx18_gr30001521653382.841.odb,RELAX,Increment    105: Step Time =    1.000,SHELL-1,316,-10.1213,4.75,14.8828,ASSEMBLY_SHELL-1_ALLEL,TI,"shell < TI > < 5 section points > : SNEG, (fraction = -1.0)",123.494
C:/Users/srbb21/AppData/Local/Temp/rx18_gr30001521653382.841.odb,RELAX,Increment    105: Step Time =    1.000,SHELL-1,317,-10.1213,5.25,14.8828,ASSEMBLY_SHELL-1_ALLEL,TI,"shell < TI > < 5 section points > : SPOS, (fraction = 1.0)",118.586
C:/Users/srbb21/AppData/Local/Temp/rx18_gr30001521653382.841.odb,RELAX,Increment    105: Step Time =    1.000,SHELL-1,317,-10.1213,5.25,14.8828,ASSEMBLY_SHELL-1_ALLEL,TI,"shell < TI > < 5 section points > : SNEG, (fraction = -1.0)",122.626
C:/Users/srbb21/AppData/Local/Temp/rx18_gr30001521653382.841.odb,RELAX,Increment    105: Step Time =    1.000,SHELL-1,318,-10.1213,5.75,14.8828,ASSEMBLY_SHELL-1_ALLEL,TI,"shell < TI > < 5 section points > : SNEG, (fraction = -1.0)",121.139
C:/Users/srbb21/AppData/Local/Temp/rx18_gr30001521653382.841.odb,RELAX,Increment    105: Step Time =    1.000,SHELL-1,318,-10.1213,5.75,14.8828,ASSEMBLY_SHELL-1_ALLEL,TI,"shell < TI > < 5 section points > : SPOS, (fraction = 1.0)",116.669
C:/Users/srbb21/AppData/Local/Temp/rx18_gr30001521653382.841.odb,RELAX,Increment    105: Step Time =    1.000,SHELL-1,319,-10.1213,6.25,14.8828,ASSEMBLY_SHELL-1_ALLEL,TI,"shell < TI > < 5 section points > : SPOS, (fraction = 1.0)",115.319
C:/Users/srbb21/AppData/Local/Temp/rx18_gr30001521653382.841.odb,RELAX,Increment    105: Step Time =    1.000,SHELL-1,319,-10.1213,6.25,14.8828,ASSEMBLY_SHELL-1_ALLEL,TI,"shell < TI > < 5 section points > : SNEG, (fraction = -1.0)",118.705
C:/Users/srbb21/AppData/Local/Temp/rx18_gr30001521653382.841.odb,RELAX,Increment    105: Step Time =    1.000,SHELL-1,320,-10.1213,6.75,14.8828,ASSEMBLY_SHELL-1_ALLEL,TI,"shell < TI > < 5 section points > : SPOS, (fraction = 1.0)",115.115
C:/Users/srbb21/AppData/Local/Temp/rx18_gr30001521653382.841.odb,RELAX,Increment    105: Step Time =    1.000,SHELL-1,320,-10.1213,6.75,14.8828,ASSEMBLY_SHELL-1_ALLEL,TI,"shell < TI > < 5 section points > : SNEG, (fraction = -1.0)",114.884
C:/Users/srbb21/AppData/Local/Temp/rx18_gr30001521653382.841.odb,RELAX,Increment    105: Step Time =    1.000,SHELL-1,321,-10.1213,7.25,14.8828,ASSEMBLY_SHELL-1_ALLEL,TI,"shell < TI > < 5 section points > : SPOS, (fraction = 1.0)",116.892
C:/Users/srbb21/AppData/Local/Temp/rx18_gr30001521653382.841.odb,RELAX,Increment    105: Step Time =    1.000,SHELL-1,321,-10.1213,7.25,14.8828,ASSEMBLY_SHELL-1_ALLEL,TI,"shell < TI > < 5 section points > : SNEG, (fraction = -1.0)",109.144
C:/Users/srbb21/AppData/Local/Temp/rx18_gr30001521653382.841.odb,RELAX,Increment    105: Step Time =    1.000,SHELL-1,322,-10.1213,7.75,14.8828,ASSEMBLY_SHELL-1_ALLEL,TI,"shell < TI > < 5 section points > : SNEG, (fraction = -1.0)",100.909
C:/Users/srbb21/AppData/Local/Temp/rx18_gr30001521653382.841.odb,RELAX,Increment    105: Step Time =    1.000,SHELL-1,322,-10.1213,7.75,14.8828,ASSEMBLY_SHELL-1_ALLEL,TI,"shell < TI > < 5 section points > : SPOS, (fraction = 1.0)",121.568
C:/Users/srbb21/AppData/Local/Temp/rx18_gr30001521653382.841.odb,RELAX,Increment    105: Step Time =    1.000,SHELL-1,323,-10.1213,8.25,14.8828,ASSEMBLY_SHELL-1_ALLEL,TI,"shell < TI > < 5 section points > : SPOS, (fraction = 1.0)",129.985
C:/Users/srbb21/AppData/Local/Temp/rx18_gr30001521653382.841.odb,RELAX,Increment    105: Step Time =    1.000,SHELL-1,323,-10.1213,8.25,14.8828,ASSEMBLY_SHELL-1_ALLEL,TI,"shell < TI > < 5 section points > : SNEG, (fraction = -1.0)",89.7261
C:/Users/srbb21/AppData/Local/Temp/rx18_gr30001521653382.841.odb,RELAX,Increment    105: Step Time =    1.000,SHELL-1,324,-10.1213,8.75,14.8828,ASSEMBLY_SHELL-1_ALLEL,TI,"shell < TI > < 5 section points > : SPOS, (fraction = 1.0)",142.449
C:/Users/srbb21/AppData/Local/Temp/rx18_gr30001521653382.841.odb,RELAX,Increment    105: Step Time =    1.000,SHELL-1,324,-10.1213,8.75,14.8828,ASSEMBLY_SHELL-1_ALLEL,TI,"shell < TI > < 5 section points > : SNEG, (fraction = -1.0)",75.3975
C:/Users/srbb21/AppData/Local/Temp/rx18_gr30001521653382.841.odb,RELAX,Increment    105: Step Time =    1.000,SHELL-1,325,-9.70402,-8.75,15.1581,ASSEMBLY_SHELL-1_ALLEL,TI,"shell < TI > < 5 section points > : SPOS, (fraction = 1.0)",144.314
C:/Users/srbb21/AppData/Local/Temp/rx18_gr30001521653382.841.odb,RELAX,Increment    105: Step Time =    1.000,SHELL-1,325,-9.70402,-8.75,15.1581,ASSEMBLY_SHELL-1_ALLEL,TI,"shell < TI > < 5 section points > : SNEG, (fraction = -1.0)",81.4562
C:/Users/srbb21/AppData/Local/Temp/rx18_gr30001521653382.841.odb,RELAX,Increment    105: Step Time =    1.000,SHELL-1,326,-9.70402,-8.25,15.1581,ASSEMBLY_SHELL-1_ALLEL,TI,"shell < TI > < 5 section points > : SPOS, (fraction = 1.0)",133.688
C:/Users/srbb21/AppData/Local/Temp/rx18_gr30001521653382.841.odb,RELAX,Increment    105: Step Time =    1.000,SHELL-1,326,-9.70402,-8.25,15.1581,ASSEMBLY_SHELL-1_ALLEL,TI,"shell < TI > < 5 section points > : SNEG, (fraction = -1.0)",94.0233
C:/Users/srbb21/AppData/Local/Temp/rx18_gr30001521653382.841.odb,RELAX,Increment    105: Step Time =    1.000,SHELL-1,327,-9.70402,-7.75,15.1581,ASSEMBLY_SHELL-1_ALLEL,TI,"shell < TI > < 5 section points > : SNEG, (fraction = -1.0)",104.359
C:/Users/srbb21/AppData/Local/Temp/rx18_gr30001521653382.841.odb,RELAX,Increment    105: Step Time =    1.000,SHELL-1,327,-9.70402,-7.75,15.1581,ASSEMBLY_SHELL-1_ALLEL,TI,"shell < TI > < 5 section points > : SPOS, (fraction = 1.0)",125.923
C:/Users/srbb21/AppData/Local/Temp/rx18_gr30001521653382.841.odb,RELAX,Increment    105: Step Time =    1.000,SHELL-1,328,-9.70402,-7.25,15.1581,ASSEMBLY_SHELL-1_ALLEL,TI,"shell < TI > < 5 section points > : SPOS, (fraction = 1.0)",121.016
C:/Users/srbb21/AppData/Local/Temp/rx18_gr30001521653382.841.odb,RELAX,Increment    105: Step Time =    1.000,SHELL-1,328,-9.70402,-7.25,15.1581,ASSEMBLY_SHELL-1_ALLEL,TI,"shell < TI > < 5 section points > : SNEG, (fraction = -1.0)",112.381
C:/Users/srbb21/AppData/Local/Temp/rx18_gr30001521653382.841.odb,RELAX,Increment    105: Step Time =    1.000,SHELL-1,329,-9.70402,-6.75,15.1581,ASSEMBLY_SHELL-1_ALLEL,TI,"shell < TI > < 5 section points > : SPOS, (fraction = 1.0)",118.548
C:/Users/srbb21/AppData/Local/Temp/rx18_gr30001521653382.841.odb,RELAX,Increment    105: Step Time =    1.000,SHELL-1,329,-9.70402,-6.75,15.1581,ASSEMBLY_SHELL-1_ALLEL,TI,"shell < TI > < 5 section points > : SNEG, (fraction = -1.0)",118.267
C:/Users/srbb21/AppData/Local/Temp/rx18_gr30001521653382.841.odb,RELAX,Increment    105: Step Time =    1.000,SHELL-1,330,-9.70402,-6.25,15.1581,ASSEMBLY_SHELL-1_ALLEL,TI,"shell < TI > < 5 section points > : SPOS, (fraction = 1.0)",117.92
C:/Users/srbb21/AppData/Local/Temp/rx18_gr30001521653382.841.odb,RELAX,Increment    105: Step Time =    1.000,SHELL-1,330,-9.70402,-6.25,15.1581,ASSEMBLY_SHELL-1_ALLEL,TI,"shell < TI > < 5 section points > : SNEG, (fraction = -1.0)",122.405
C:/Users/srbb21/AppData/Local/Temp/rx18_gr30001521653382.841.odb,RELAX,Increment    105: Step Time =    1.000,SHELL-1,331,-9.70402,-5.75,15.1581,ASSEMBLY_SHELL-1_ALLEL,TI,"shell < TI > < 5 section points > : SNEG, (fraction = -1.0)",125.18
C:/Users/srbb21/AppData/Local/Temp/rx18_gr30001521653382.841.odb,RELAX,Increment    105: Step Time =    1.000,SHELL-1,331,-9.70402,-5.75,15.1581,ASSEMBLY_SHELL-1_ALLEL,TI,"shell < TI > < 5 section points > : SPOS, (fraction = 1.0)",118.523
C:/Users/srbb21/AppData/Local/Temp/rx18_gr30001521653382.841.odb,RELAX,Increment    105: Step Time =    1.000,SHELL-1,332,-9.70402,-5.25,15.1581,ASSEMBLY_SHELL-1_ALLEL,TI,"shell < TI > < 5 section points > : SPOS, (fraction = 1.0)",119.861
C:/Users/srbb21/AppData/Local/Temp/rx18_gr30001521653382.841.odb,RELAX,Increment    105: Step Time =    1.000,SHELL-1,332,-9.70402,-5.25,15.1581,ASSEMBLY_SHELL-1_ALLEL,TI,"shell < TI > < 5 section points > : SNEG, (fraction = -1.0)",126.961
C:/Users/srbb21/AppData/Local/Temp/rx18_gr30001521653382.841.odb,RELAX,Increment    105: Step Time =    1.000,SHELL-1,333,-9.70402,-4.75,15.1581,ASSEMBLY_SHELL-1_ALLEL,TI,"shell < TI > < 5 section points > : SPOS, (fraction = 1.0)",121.571
C:/Users/srbb21/AppData/Local/Temp/rx18_gr30001521653382.841.odb,RELAX,Increment    105: Step Time =    1.000,SHELL-1,333,-9.70402,-4.75,15.1581,ASSEMBLY_SHELL-1_ALLEL,TI,"shell < TI > < 5 section points > : SNEG, (fraction = -1.0)",128.048
C:/Users/srbb21/AppData/Local/Temp/rx18_gr30001521653382.841.odb,RELAX,Increment    105: Step Time =    1.000,SHELL-1,334,-9.70402,-4.25,15.1581,ASSEMBLY_SHELL-1_ALLEL,TI,"shell < TI > < 5 section points > : SPOS, (fraction = 1.0)",123.413
C:/Users/srbb21/AppData/Local/Temp/rx18_gr30001521653382.841.odb,RELAX,Increment    105: Step Time =    1.000,SHELL-1,334,-9.70402,-4.25,15.1581,ASSEMBLY_SHELL-1_ALLEL,TI,"shell < TI > < 5 section points > : SNEG, (fraction = -1.0)",128.67
C:/Users/srbb21/AppData/Local/Temp/rx18_gr30001521653382.841.odb,RELAX,Increment    105: Step Time =    1.000,SHELL-1,335,-9.70402,-3.75,15.1581,ASSEMBLY_SHELL-1_ALLEL,TI,"shell < TI > < 5 section points > : SNEG, (fraction = -1.0)",128.995
C:/Users/srbb21/AppData/Local/Temp/rx18_gr30001521653382.841.odb,RELAX,Increment    105: Step Time =    1.000,SHELL-1,335,-9.70402,-3.75,15.1581,ASSEMBLY_SHELL-1_ALLEL,TI,"shell < TI > < 5 section points > : SPOS, (fraction = 1.0)",125.231
C:/Users/srbb21/AppData/Local/Temp/rx18_gr30001521653382.841.odb,RELAX,Increment    105: Step Time =    1.000,SHELL-1,336,-9.70402,-3.25,15.1581,ASSEMBLY_SHELL-1_ALLEL,TI,"shell < TI > < 5 section points > : SPOS, (fraction = 1.0)",126.931
C:/Users/srbb21/AppData/Local/Temp/rx18_gr30001521653382.841.odb,RELAX,Increment    105: Step Time =    1.000,SHELL-1,336,-9.70402,-3.25,15.1581,ASSEMBLY_SHELL-1_ALLEL,TI,"shell < TI > < 5 section points > : SNEG, (fraction = -1.0)",129.136
C:/Users/srbb21/AppData/Local/Temp/rx18_gr30001521653382.841.odb,RELAX,Increment    105: Step Time =    1.000,SHELL-1,337,-9.70402,-2.75,15.1581,ASSEMBLY_SHELL-1_ALLEL,TI,"shell < TI > < 5 section points > : SPOS, (fraction = 1.0)",128.451
C:/Users/srbb21/AppData/Local/Temp/rx18_gr30001521653382.841.odb,RELAX,Increment    105: Step Time =    1.000,SHELL-1,337,-9.70402,-2.75,15.1581,ASSEMBLY_SHELL-1_ALLEL,TI,"shell < TI > < 5 section points > : SNEG, (fraction = -1.0)",129.171
C:/Users/srbb21/AppData/Local/Temp/rx18_gr30001521653382.841.odb,RELAX,Increment    105: Step Time =    1.000,SHELL-1,338,-9.70402,-2.25,15.1581,ASSEMBLY_SHELL-1_ALLEL,TI,"shell < TI > < 5 section points > : SPOS, (fraction = 1.0)",129.755
C:/Users/srbb21/AppData/Local/Temp/rx18_gr30001521653382.841.odb,RELAX,Increment    105: Step Time =    1.000,SHELL-1,338,-9.70402,-2.25,15.1581,ASSEMBLY_SHELL-1_ALLEL,TI,"shell < TI > < 5 section points > : SNEG, (fraction = -1.0)",129.148
C:/Users/srbb21/AppData/Local/Temp/rx18_gr30001521653382.841.odb,RELAX,Increment    105: Step Time =    1.000,SHELL-1,339,-9.70402,-1.75,15.1581,ASSEMBLY_SHELL-1_ALLEL,TI,"shell < TI > < 5 section points > : SNEG, (fraction = -1.0)",129.102
C:/Users/srbb21/AppData/Local/Temp/rx18_gr30001521653382.841.odb,RELAX,Increment    105: Step Time =    1.000,SHELL-1,339,-9.70402,-1.75,15.1581,ASSEMBLY_SHELL-1_ALLEL,TI,"shell < TI > < 5 section points > : SPOS, (fraction = 1.0)",130.817
C:/Users/srbb21/AppData/Local/Temp/rx18_gr30001521653382.841.odb,RELAX,Increment    105: Step Time =    1.000,SHELL-1,340,-9.70402,-1.25,15.1581,ASSEMBLY_SHELL-1_ALLEL,TI,"shell < TI > < 5 section points > : SPOS, (fraction = 1.0)",131.624
C:/Users/srbb21/AppData/Local/Temp/rx18_gr30001521653382.841.odb,RELAX,Increment    105: Step Time =    1.000,SHELL-1,340,-9.70402,-1.25,15.1581,ASSEMBLY_SHELL-1_ALLEL,TI,"shell < TI > < 5 section points > : SNEG, (fraction = -1.0)",129.051
C:/Users/srbb21/AppData/Local/Temp/rx18_gr30001521653382.841.odb,RELAX,Increment    105: Step Time =    1.000,SHELL-1,341,-9.70402,-0.75,15.1581,ASSEMBLY_SHELL-1_ALLEL,TI,"shell < TI > < 5 section points > : SPOS, (fraction = 1.0)",132.166
C:/Users/srbb21/AppData/Local/Temp/rx18_gr30001521653382.841.odb,RELAX,Increment    105: Step Time =    1.000,SHELL-1,341,-9.70402,-0.75,15.1581,ASSEMBLY_SHELL-1_ALLEL,TI,"shell < TI > < 5 section points > : SNEG, (fraction = -1.0)",129.011
C:/Users/srbb21/AppData/Local/Temp/rx18_gr30001521653382.841.odb,RELAX,Increment    105: Step Time =    1.000,SHELL-1,342,-9.70402,-0.25,15.1581,ASSEMBLY_SHELL-1_ALLEL,TI,"shell < TI > < 5 section points > : SPOS, (fraction = 1.0)",132.438
C:/Users/srbb21/AppData/Local/Temp/rx18_gr30001521653382.841.odb,RELAX,Increment    105: Step Time =    1.000,SHELL-1,342,-9.70402,-0.25,15.1581,ASSEMBLY_SHELL-1_ALLEL,TI,"shell < TI > < 5 section points > : SNEG, (fraction = -1.0)",128.989
C:/Users/srbb21/AppData/Local/Temp/rx18_gr30001521653382.841.odb,RELAX,Increment    105: Step Time =    1.000,SHELL-1,343,-9.70402,0.25,15.1581,ASSEMBLY_SHELL-1_ALLEL,TI,"shell < TI > < 5 section points > : SPOS, (fraction = 1.0)",132.438
C:/Users/srbb21/AppData/Local/Temp/rx18_gr30001521653382.841.odb,RELAX,Increment    105: Step Time =    1.000,SHELL-1,343,-9.70402,0.25,15.1581,ASSEMBLY_SHELL-1_ALLEL,TI,"shell < TI > < 5 section points > : SNEG, (fraction = -1.0)",128.989
C:/Users/srbb21/AppData/Local/Temp/rx18_gr30001521653382.841.odb,RELAX,Increment    105: Step Time =    1.000,SHELL-1,344,-9.70402,0.75,15.1581,ASSEMBLY_SHELL-1_ALLEL,TI,"shell < TI > < 5 section points > : SNEG, (fraction = -1.0)",129.011
C:/Users/srbb21/AppData/Local/Temp/rx18_gr30001521653382.841.odb,RELAX,Increment    105: Step Time =    1.000,SHELL-1,344,-9.70402,0.75,15.1581,ASSEMBLY_SHELL-1_ALLEL,TI,"shell < TI > < 5 section points > : SPOS, (fraction = 1.0)",132.166
C:/Users/srbb21/AppData/Local/Temp/rx18_gr30001521653382.841.odb,RELAX,Increment    105: Step Time =    1.000,SHELL-1,345,-9.70402,1.25,15.1581,ASSEMBLY_SHELL-1_ALLEL,TI,"shell < TI > < 5 section points > : SPOS, (fraction = 1.0)",131.624
C:/Users/srbb21/AppData/Local/Temp/rx18_gr30001521653382.841.odb,RELAX,Increment    105: Step Time =    1.000,SHELL-1,345,-9.70402,1.25,15.1581,ASSEMBLY_SHELL-1_ALLEL,TI,"shell < TI > < 5 section points > : SNEG, (fraction = -1.0)",129.051
C:/Users/srbb21/AppData/Local/Temp/rx18_gr30001521653382.841.odb,RELAX,Increment    105: Step Time =    1.000,SHELL-1,346,-9.70402,1.75,15.1581,ASSEMBLY_SHELL-1_ALLEL,TI,"shell < TI > < 5 section points > : SPOS, (fraction = 1.0)",130.817
C:/Users/srbb21/AppData/Local/Temp/rx18_gr30001521653382.841.odb,RELAX,Increment    105: Step Time =    1.000,SHELL-1,346,-9.70402,1.75,15.1581,ASSEMBLY_SHELL-1_ALLEL,TI,"shell < TI > < 5 section points > : SNEG, (fraction = -1.0)",129.102
C:/Users/srbb21/AppData/Local/Temp/rx18_gr30001521653382.841.odb,RELAX,Increment    105: Step Time =    1.000,SHELL-1,347,-9.70402,2.25,15.1581,ASSEMBLY_SHELL-1_ALLEL,TI,"shell < TI > < 5 section points > : SPOS, (fraction = 1.0)",129.755
C:/Users/srbb21/AppData/Local/Temp/rx18_gr30001521653382.841.odb,RELAX,Increment    105: Step Time =    1.000,SHELL-1,347,-9.70402,2.25,15.1581,ASSEMBLY_SHELL-1_ALLEL,TI,"shell < TI > < 5 section points > : SNEG, (fraction = -1.0)",129.148
C:/Users/srbb21/AppData/Local/Temp/rx18_gr30001521653382.841.odb,RELAX,Increment    105: Step Time =    1.000,SHELL-1,348,-9.70402,2.75,15.1581,ASSEMBLY_SHELL-1_ALLEL,TI,"shell < TI > < 5 section points > : SNEG, (fraction = -1.0)",129.171
C:/Users/srbb21/AppData/Local/Temp/rx18_gr30001521653382.841.odb,RELAX,Increment    105: Step Time =    1.000,SHELL-1,348,-9.70402,2.75,15.1581,ASSEMBLY_SHELL-1_ALLEL,TI,"shell < TI > < 5 section points > : SPOS, (fraction = 1.0)",128.451
C:/Users/srbb21/AppData/Local/Temp/rx18_gr30001521653382.841.odb,RELAX,Increment    105: Step Time =    1.000,SHELL-1,349,-9.70402,3.25,15.1581,ASSEMBLY_SHELL-1_ALLEL,TI,"shell < TI > < 5 section points > : SPOS, (fraction = 1.0)",126.931
C:/Users/srbb21/AppData/Local/Temp/rx18_gr30001521653382.841.odb,RELAX,Increment    105: Step Time =    1.000,SHELL-1,349,-9.70402,3.25,15.1581,ASSEMBLY_SHELL-1_ALLEL,TI,"shell < TI > < 5 section points > : SNEG, (fraction = -1.0)",129.136
C:/Users/srbb21/AppData/Local/Temp/rx18_gr30001521653382.841.odb,RELAX,Increment    105: Step Time =    1.000,SHELL-1,350,-9.70402,3.75,15.1581,ASSEMBLY_SHELL-1_ALLEL,TI,"shell < TI > < 5 section points > : SPOS, (fraction = 1.0)",125.231
C:/Users/srbb21/AppData/Local/Temp/rx18_gr30001521653382.841.odb,RELAX,Increment    105: Step Time =    1.000,SHELL-1,350,-9.70402,3.75,15.1581,ASSEMBLY_SHELL-1_ALLEL,TI,"shell < TI > < 5 section points > : SNEG, (fraction = -1.0)",128.995
C:/Users/srbb21/AppData/Local/Temp/rx18_gr30001521653382.841.odb,RELAX,Increment    105: Step Time =    1.000,SHELL-1,351,-9.70402,4.25,15.1581,ASSEMBLY_SHELL-1_ALLEL,TI,"shell < TI > < 5 section points > : SPOS, (fraction = 1.0)",123.413
C:/Users/srbb21/AppData/Local/Temp/rx18_gr30001521653382.841.odb,RELAX,Increment    105: Step Time =    1.000,SHELL-1,351,-9.70402,4.25,15.1581,ASSEMBLY_SHELL-1_ALLEL,TI,"shell < TI > < 5 section points > : SNEG, (fraction = -1.0)",128.67
C:/Users/srbb21/AppData/Local/Temp/rx18_gr30001521653382.841.odb,RELAX,Increment    105: Step Time =    1.000,SHELL-1,352,-9.70402,4.75,15.1581,ASSEMBLY_SHELL-1_ALLEL,TI,"shell < TI > < 5 section points > : SNEG, (fraction = -1.0)",128.048
C:/Users/srbb21/AppData/Local/Temp/rx18_gr30001521653382.841.odb,RELAX,Increment    105: Step Time =    1.000,SHELL-1,352,-9.70402,4.75,15.1581,ASSEMBLY_SHELL-1_ALLEL,TI,"shell < TI > < 5 section points > : SPOS, (fraction = 1.0)",121.571
C:/Users/srbb21/AppData/Local/Temp/rx18_gr30001521653382.841.odb,RELAX,Increment    105: Step Time =    1.000,SHELL-1,353,-9.70402,5.25,15.1581,ASSEMBLY_SHELL-1_ALLEL,TI,"shell < TI > < 5 section points > : SPOS, (fraction = 1.0)",119.861
C:/Users/srbb21/AppData/Local/Temp/rx18_gr30001521653382.841.odb,RELAX,Increment    105: Step Time =    1.000,SHELL-1,353,-9.70402,5.25,15.1581,ASSEMBLY_SHELL-1_ALLEL,TI,"shell < TI > < 5 section points > : SNEG, (fraction = -1.0)",126.961
C:/Users/srbb21/AppData/Local/Temp/rx18_gr30001521653382.841.odb,RELAX,Increment    105: Step Time =    1.000,SHELL-1,354,-9.70402,5.75,15.1581,ASSEMBLY_SHELL-1_ALLEL,TI,"shell < TI > < 5 section points > : SPOS, (fraction = 1.0)",118.523
C:/Users/srbb21/AppData/Local/Temp/rx18_gr30001521653382.841.odb,RELAX,Increment    105: Step Time =    1.000,SHELL-1,354,-9.70402,5.75,15.1581,ASSEMBLY_SHELL-1_ALLEL,TI,"shell < TI > < 5 section points > : SNEG, (fraction = -1.0)",125.18
C:/Users/srbb21/AppData/Local/Temp/rx18_gr30001521653382.841.odb,RELAX,Increment    105: Step Time =    1.000,SHELL-1,355,-9.70402,6.25,15.1581,ASSEMBLY_SHELL-1_ALLEL,TI,"shell < TI > < 5 section points > : SPOS, (fraction = 1.0)",117.92
C:/Users/srbb21/AppData/Local/Temp/rx18_gr30001521653382.841.odb,RELAX,Increment    105: Step Time =    1.000,SHELL-1,355,-9.70402,6.25,15.1581,ASSEMBLY_SHELL-1_ALLEL,TI,"shell < TI > < 5 section points > : SNEG, (fraction = -1.0)",122.405
C:/Users/srbb21/AppData/Local/Temp/rx18_gr30001521653382.841.odb,RELAX,Increment    105: Step Time =    1.000,SHELL-1,356,-9.70402,6.75,15.1581,ASSEMBLY_SHELL-1_ALLEL,TI,"shell < TI > < 5 section points > : SNEG, (fraction = -1.0)",118.267
C:/Users/srbb21/AppData/Local/Temp/rx18_gr30001521653382.841.odb,RELAX,Increment    105: Step Time =    1.000,SHELL-1,356,-9.70402,6.75,15.1581,ASSEMBLY_SHELL-1_ALLEL,TI,"shell < TI > < 5 section points > : SPOS, (fraction = 1.0)",118.548
C:/Users/srbb21/AppData/Local/Temp/rx18_gr30001521653382.841.odb,RELAX,Increment    105: Step Time =    1.000,SHELL-1,357,-9.70402,7.25,15.1581,ASSEMBLY_SHELL-1_ALLEL,TI,"shell < TI > < 5 section points > : SPOS, (fraction = 1.0)",121.016
C:/Users/srbb21/AppData/Local/Temp/rx18_gr30001521653382.841.odb,RELAX,Increment    105: Step Time =    1.000,SHELL-1,357,-9.70402,7.25,15.1581,ASSEMBLY_SHELL-1_ALLEL,TI,"shell < TI > < 5 section points > : SNEG, (fraction = -1.0)",112.381
C:/Users/srbb21/AppData/Local/Temp/rx18_gr30001521653382.841.odb,RELAX,Increment    105: Step Time =    1.000,SHELL-1,358,-9.70402,7.75,15.1581,ASSEMBLY_SHELL-1_ALLEL,TI,"shell < TI > < 5 section points > : SPOS, (fraction = 1.0)",125.923
C:/Users/srbb21/AppData/Local/Temp/rx18_gr30001521653382.841.odb,RELAX,Increment    105: Step Time =    1.000,SHELL-1,358,-9.70402,7.75,15.1581,ASSEMBLY_SHELL-1_ALLEL,TI,"shell < TI > < 5 section points > : SNEG, (fraction = -1.0)",104.359
C:/Users/srbb21/AppData/Local/Temp/rx18_gr30001521653382.841.odb,RELAX,Increment    105: Step Time =    1.000,SHELL-1,359,-9.70402,8.25,15.1581,ASSEMBLY_SHELL-1_ALLEL,TI,"shell < TI > < 5 section points > : SPOS, (fraction = 1.0)",133.688
C:/Users/srbb21/AppData/Local/Temp/rx18_gr30001521653382.841.odb,RELAX,Increment    105: Step Time =    1.000,SHELL-1,359,-9.70402,8.25,15.1581,ASSEMBLY_SHELL-1_ALLEL,TI,"shell < TI > < 5 section points > : SNEG, (fraction = -1.0)",94.0233
C:/Users/srbb21/AppData/Local/Temp/rx18_gr30001521653382.841.odb,RELAX,Increment    105: Step Time =    1.000,SHELL-1,360,-9.70402,8.75,15.1581,ASSEMBLY_SHELL-1_ALLEL,TI,"shell < TI > < 5 section points > : SPOS, (fraction = 1.0)",144.314
C:/Users/srbb21/AppData/Local/Temp/rx18_gr30001521653382.841.odb,RELAX,Increment    105: Step Time =    1.000,SHELL-1,360,-9.70402,8.75,15.1581,ASSEMBLY_SHELL-1_ALLEL,TI,"shell < TI > < 5 section points > : SNEG, (fraction = -1.0)",81.4562
C:/Users/srbb21/AppData/Local/Temp/rx18_gr30001521653382.841.odb,RELAX,Increment    105: Step Time =    1.000,SHELL-1,361,-9.27927,-8.75,15.4218,ASSEMBLY_SHELL-1_ALLEL,TI,"shell < TI > < 5 section points > : SNEG, (fraction = -1.0)",86.4459
C:/Users/srbb21/AppData/Local/Temp/rx18_gr30001521653382.841.odb,RELAX,Increment    105: Step Time =    1.000,SHELL-1,361,-9.27927,-8.75,15.4218,ASSEMBLY_SHELL-1_ALLEL,TI,"shell < TI > < 5 section points > : SPOS, (fraction = 1.0)",144.911
C:/Users/srbb21/AppData/Local/Temp/rx18_gr30001521653382.841.odb,RELAX,Increment    105: Step Time =    1.000,SHELL-1,362,-9.27927,-8.25,15.4218,ASSEMBLY_SHELL-1_ALLEL,TI,"shell < TI > < 5 section points > : SPOS, (fraction = 1.0)",135.921
C:/Users/srbb21/AppData/Local/Temp/rx18_gr30001521653382.841.odb,RELAX,Increment    105: Step Time =    1.000,SHELL-1,362,-9.27927,-8.25,15.4218,ASSEMBLY_SHELL-1_ALLEL,TI,"shell < TI > < 5 section points > : SNEG, (fraction = -1.0)",97.3439
C:/Users/srbb21/AppData/Local/Temp/rx18_gr30001521653382.841.odb,RELAX,Increment    105: Step Time =    1.000,SHELL-1,363,-9.27927,-7.75,15.4218,ASSEMBLY_SHELL-1_ALLEL,TI,"shell < TI > < 5 section points > : SPOS, (fraction = 1.0)",128.9
C:/Users/srbb21/AppData/Local/Temp/rx18_gr30001521653382.841.odb,RELAX,Increment    105: Step Time =    1.000,SHELL-1,363,-9.27927,-7.75,15.4218,ASSEMBLY_SHELL-1_ALLEL,TI,"shell < TI > < 5 section points > : SNEG, (fraction = -1.0)",106.725
C:/Users/srbb21/AppData/Local/Temp/rx18_gr30001521653382.841.odb,RELAX,Increment    105: Step Time =    1.000,SHELL-1,364,-9.27927,-7.25,15.4218,ASSEMBLY_SHELL-1_ALLEL,TI,"shell < TI > < 5 section points > : SPOS, (fraction = 1.0)",124.022
C:/Users/srbb21/AppData/Local/Temp/rx18_gr30001521653382.841.odb,RELAX,Increment    105: Step Time =    1.000,SHELL-1,364,-9.27927,-7.25,15.4218,ASSEMBLY_SHELL-1_ALLEL,TI,"shell < TI > < 5 section points > : SNEG, (fraction = -1.0)",114.322
C:/Users/srbb21/AppData/Local/Temp/rx18_gr30001521653382.841.odb,RELAX,Increment    105: Step Time =    1.000,SHELL-1,365,-9.27927,-6.75,15.4218,ASSEMBLY_SHELL-1_ALLEL,TI,"shell < TI > < 5 section points > : SNEG, (fraction = -1.0)",120.148
C:/Users/srbb21/AppData/Local/Temp/rx18_gr30001521653382.841.odb,RELAX,Increment    105: Step Time =    1.000,SHELL-1,365,-9.27927,-6.75,15.4218,ASSEMBLY_SHELL-1_ALLEL,TI,"shell < TI > < 5 section points > : SPOS, (fraction = 1.0)",121.117
C:/Users/srbb21/AppData/Local/Temp/rx18_gr30001521653382.841.odb,RELAX,Increment    105: Step Time =    1.000,SHELL-1,366,-9.27927,-6.25,15.4218,ASSEMBLY_SHELL-1_ALLEL,TI,"shell < TI > < 5 section points > : SPOS, (fraction = 1.0)",119.837
C:/Users/srbb21/AppData/Local/Temp/rx18_gr30001521653382.841.odb,RELAX,Increment    105: Step Time =    1.000,SHELL-1,366,-9.27927,-6.25,15.4218,ASSEMBLY_SHELL-1_ALLEL,TI,"shell < TI > < 5 section points > : SNEG, (fraction = -1.0)",124.418
C:/Users/srbb21/AppData/Local/Temp/rx18_gr30001521653382.841.odb,RELAX,Increment    105: Step Time =    1.000,SHELL-1,367,-9.27927,-5.75,15.4218,ASSEMBLY_SHELL-1_ALLEL,TI,"shell < TI > < 5 section points > : SPOS, (fraction = 1.0)",119.754
C:/Users/srbb21/AppData/Local/Temp/rx18_gr30001521653382.841.odb,RELAX,Increment    105: Step Time =    1.000,SHELL-1,367,-9.27927,-5.75,15.4218,ASSEMBLY_SHELL-1_ALLEL,TI,"shell < TI > < 5 section points > : SNEG, (fraction = -1.0)",127.41
C:/Users/srbb21/AppData/Local/Temp/rx18_gr30001521653382.841.odb,RELAX,Increment    105: Step Time =    1.000,SHELL-1,368,-9.27927,-5.25,15.4218,ASSEMBLY_SHELL-1_ALLEL,TI,"shell < TI > < 5 section points > : SPOS, (fraction = 1.0)",120.483
C:/Users/srbb21/AppData/Local/Temp/rx18_gr30001521653382.841.odb,RELAX,Increment    105: Step Time =    1.000,SHELL-1,368,-9.27927,-5.25,15.4218,ASSEMBLY_SHELL-1_ALLEL,TI,"shell < TI > < 5 section points > : SNEG, (fraction = -1.0)",129.41
C:/Users/srbb21/AppData/Local/Temp/rx18_gr30001521653382.841.odb,RELAX,Increment    105: Step Time =    1.000,SHELL-1,369,-9.27927,-4.75,15.4218,ASSEMBLY_SHELL-1_ALLEL,TI,"shell < TI > < 5 section points > : SNEG, (fraction = -1.0)",130.677
C:/Users/srbb21/AppData/Local/Temp/rx18_gr30001521653382.841.odb,RELAX,Increment    105: Step Time =    1.000,SHELL-1,369,-9.27927,-4.75,15.4218,ASSEMBLY_SHELL-1_ALLEL,TI,"shell < TI > < 5 section points > : SPOS, (fraction = 1.0)",121.703
C:/Users/srbb21/AppData/Local/Temp/rx18_gr30001521653382.841.odb,RELAX,Increment    105: Step Time =    1.000,SHELL-1,370,-9.27927,-4.25,15.4218,ASSEMBLY_SHELL-1_ALLEL,TI,"shell < TI > < 5 section points > : SPOS, (fraction = 1.0)",123.18
C:/Users/srbb21/AppData/Local/Temp/rx18_gr30001521653382.841.odb,RELAX,Increment    105: Step Time =    1.000,SHELL-1,370,-9.27927,-4.25,15.4218,ASSEMBLY_SHELL-1_ALLEL,TI,"shell < TI > < 5 section points > : SNEG, (fraction = -1.0)",131.429
C:/Users/srbb21/AppData/Local/Temp/rx18_gr30001521653382.841.odb,RELAX,Increment    105: Step Time =    1.000,SHELL-1,371,-9.27927,-3.75,15.4218,ASSEMBLY_SHELL-1_ALLEL,TI,"shell < TI > < 5 section points > : SPOS, (fraction = 1.0)",124.744
C:/Users/srbb21/AppData/Local/Temp/rx18_gr30001521653382.841.odb,RELAX,Increment    105: Step Time =    1.000,SHELL-1,371,-9.27927,-3.75,15.4218,ASSEMBLY_SHELL-1_ALLEL,TI,"shell < TI > < 5 section points > : SNEG, (fraction = -1.0)",131.83
C:/Users/srbb21/AppData/Local/Temp/rx18_gr30001521653382.841.odb,RELAX,Increment    105: Step Time =    1.000,SHELL-1,372,-9.27927,-3.25,15.4218,ASSEMBLY_SHELL-1_ALLEL,TI,"shell < TI > < 5 section points > : SPOS, (fraction = 1.0)",126.276
C:/Users/srbb21/AppData/Local/Temp/rx18_gr30001521653382.841.odb,RELAX,Increment    105: Step Time =    1.000,SHELL-1,372,-9.27927,-3.25,15.4218,ASSEMBLY_SHELL-1_ALLEL,TI,"shell < TI > < 5 section points > : SNEG, (fraction = -1.0)",132.008
C:/Users/srbb21/AppData/Local/Temp/rx18_gr30001521653382.841.odb,RELAX,Increment    105: Step Time =    1.000,SHELL-1,373,-9.27927,-2.75,15.4218,ASSEMBLY_SHELL-1_ALLEL,TI,"shell < TI > < 5 section points > : SNEG, (fraction = -1.0)",132.049
C:/Users/srbb21/AppData/Local/Temp/rx18_gr30001521653382.841.odb,RELAX,Increment    105: Step Time =    1.000,SHELL-1,373,-9.27927,-2.75,15.4218,ASSEMBLY_SHELL-1_ALLEL,TI,"shell < TI > < 5 section points > : SPOS, (fraction = 1.0)",127.694
C:/Users/srbb21/AppData/Local/Temp/rx18_gr30001521653382.841.odb,RELAX,Increment    105: Step Time =    1.000,SHELL-1,374,-9.27927,-2.25,15.4218,ASSEMBLY_SHELL-1_ALLEL,TI,"shell < TI > < 5 section points > : SPOS, (fraction = 1.0)",128.94
C:/Users/srbb21/AppData/Local/Temp/rx18_gr30001521653382.841.odb,RELAX,Increment    105: Step Time =    1.000,SHELL-1,374,-9.27927,-2.25,15.4218,ASSEMBLY_SHELL-1_ALLEL,TI,"shell < TI > < 5 section points > : SNEG, (fraction = -1.0)",132.018
C:/Users/srbb21/AppData/Local/Temp/rx18_gr30001521653382.841.odb,RELAX,Increment    105: Step Time =    1.000,SHELL-1,375,-9.27927,-1.75,15.4218,ASSEMBLY_SHELL-1_ALLEL,TI,"shell < TI > < 5 section points > : SPOS, (fraction = 1.0)",129.976
C:/Users/srbb21/AppData/Local/Temp/rx18_gr30001521653382.841.odb,RELAX,Increment    105: Step Time =    1.000,SHELL-1,375,-9.27927,-1.75,15.4218,ASSEMBLY_SHELL-1_ALLEL,TI,"shell < TI > < 5 section points > : SNEG, (fraction = -1.0)",131.954
C:/Users/srbb21/AppData/Local/Temp/rx18_gr30001521653382.841.odb,RELAX,Increment    105: Step Time =    1.000,SHELL-1,376,-9.27927,-1.25,15.4218,ASSEMBLY_SHELL-1_ALLEL,TI,"shell < TI > < 5 section points > : SPOS, (fraction = 1.0)",130.772
C:/Users/srbb21/AppData/Local/Temp/rx18_gr30001521653382.841.odb,RELAX,Increment    105: Step Time =    1.000,SHELL-1,376,-9.27927,-1.25,15.4218,ASSEMBLY_SHELL-1_ALLEL,TI,"shell < TI > < 5 section points > : SNEG, (fraction = -1.0)",131.886
C:/Users/srbb21/AppData/Local/Temp/rx18_gr30001521653382.841.odb,RELAX,Increment    105: Step Time =    1.000,SHELL-1,377,-9.27927,-0.75,15.4218,ASSEMBLY_SHELL-1_ALLEL,TI,"shell < TI > < 5 section points > : SPOS, (fraction = 1.0)",131.312
C:/Users/srbb21/AppData/Local/Temp/rx18_gr30001521653382.841.odb,RELAX,Increment    105: Step Time =    1.000,SHELL-1,377,-9.27927,-0.75,15.4218,ASSEMBLY_SHELL-1_ALLEL,TI,"shell < TI > < 5 section points > : SNEG, (fraction = -1.0)",131.832
C:/Users/srbb21/AppData/Local/Temp/rx18_gr30001521653382.841.odb,RELAX,Increment    105: Step Time =    1.000,SHELL-1,378,-9.27927,-0.25,15.4218,ASSEMBLY_SHELL-1_ALLEL,TI,"shell < TI > < 5 section points > : SNEG, (fraction = -1.0)",131.802
C:/Users/srbb21/AppData/Local/Temp/rx18_gr30001521653382.841.odb,RELAX,Increment    105: Step Time =    1.000,SHELL-1,378,-9.27927,-0.25,15.4218,ASSEMBLY_SHELL-1_ALLEL,TI,"shell < TI > < 5 section points > : SPOS, (fraction = 1.0)",131.585
C:/Users/srbb21/AppData/Local/Temp/rx18_gr30001521653382.841.odb,RELAX,Increment    105: Step Time =    1.000,SHELL-1,379,-9.27927,0.25,15.4218,ASSEMBLY_SHELL-1_ALLEL,TI,"shell < TI > < 5 section points > : SPOS, (fraction = 1.0)",131.585
C:/Users/srbb21/AppData/Local/Temp/rx18_gr30001521653382.841.odb,RELAX,Increment    105: Step Time =    1.000,SHELL-1,379,-9.27927,0.25,15.4218,ASSEMBLY_SHELL-1_ALLEL,TI,"shell < TI > < 5 section points > : SNEG, (fraction = -1.0)",131.802
C:/Users/srbb21/AppData/Local/Temp/rx18_gr30001521653382.841.odb,RELAX,Increment    105: Step Time =    1.000,SHELL-1,380,-9.27927,0.75,15.4218,ASSEMBLY_SHELL-1_ALLEL,TI,"shell < TI > < 5 section points > : SPOS, (fraction = 1.0)",131.312
C:/Users/srbb21/AppData/Local/Temp/rx18_gr30001521653382.841.odb,RELAX,Increment    105: Step Time =    1.000,SHELL-1,380,-9.27927,0.75,15.4218,ASSEMBLY_SHELL-1_ALLEL,TI,"shell < TI > < 5 section points > : SNEG, (fraction = -1.0)",131.832
C:/Users/srbb21/AppData/Local/Temp/rx18_gr30001521653382.841.odb,RELAX,Increment    105: Step Time =    1.000,SHELL-1,381,-9.27927,1.25,15.4218,ASSEMBLY_SHELL-1_ALLEL,TI,"shell < TI > < 5 section points > : SPOS, (fraction = 1.0)",130.772
C:/Users/srbb21/AppData/Local/Temp/rx18_gr30001521653382.841.odb,RELAX,Increment    105: Step Time =    1.000,SHELL-1,381,-9.27927,1.25,15.4218,ASSEMBLY_SHELL-1_ALLEL,TI,"shell < TI > < 5 section points > : SNEG, (fraction = -1.0)",131.886
C:/Users/srbb21/AppData/Local/Temp/rx18_gr30001521653382.841.odb,RELAX,Increment    105: Step Time =    1.000,SHELL-1,382,-9.27927,1.75,15.4218,ASSEMBLY_SHELL-1_ALLEL,TI,"shell < TI > < 5 section points > : SNEG, (fraction = -1.0)",131.954
C:/Users/srbb21/AppData/Local/Temp/rx18_gr30001521653382.841.odb,RELAX,Increment    105: Step Time =    1.000,SHELL-1,382,-9.27927,1.75,15.4218,ASSEMBLY_SHELL-1_ALLEL,TI,"shell < TI > < 5 section points > : SPOS, (fraction = 1.0)",129.976
C:/Users/srbb21/AppData/Local/Temp/rx18_gr30001521653382.841.odb,RELAX,Increment    105: Step Time =    1.000,SHELL-1,383,-9.27927,2.25,15.4218,ASSEMBLY_SHELL-1_ALLEL,TI,"shell < TI > < 5 section points > : SPOS, (fraction = 1.0)",128.94
C:/Users/srbb21/AppData/Local/Temp/rx18_gr30001521653382.841.odb,RELAX,Increment    105: Step Time =    1.000,SHELL-1,383,-9.27927,2.25,15.4218,ASSEMBLY_SHELL-1_ALLEL,TI,"shell < TI > < 5 section points > : SNEG, (fraction = -1.0)",132.018
C:/Users/srbb21/AppData/Local/Temp/rx18_gr30001521653382.841.odb,RELAX,Increment    105: Step Time =    1.000,SHELL-1,384,-9.27927,2.75,15.4218,ASSEMBLY_SHELL-1_ALLEL,TI,"shell < TI > < 5 section points > : SPOS, (fraction = 1.0)",127.694
C:/Users/srbb21/AppData/Local/Temp/rx18_gr30001521653382.841.odb,RELAX,Increment    105: Step Time =    1.000,SHELL-1,384,-9.27927,2.75,15.4218,ASSEMBLY_SHELL-1_ALLEL,TI,"shell < TI > < 5 section points > : SNEG, (fraction = -1.0)",132.049
C:/Users/srbb21/AppData/Local/Temp/rx18_gr30001521653382.841.odb,RELAX,Increment    105: Step Time =    1.000,SHELL-1,385,-9.27927,3.25,15.4218,ASSEMBLY_SHELL-1_ALLEL,TI,"shell < TI > < 5 section points > : SPOS, (fraction = 1.0)",126.276
C:/Users/srbb21/AppData/Local/Temp/rx18_gr30001521653382.841.odb,RELAX,Increment    105: Step Time =    1.000,SHELL-1,385,-9.27927,3.25,15.4218,ASSEMBLY_SHELL-1_ALLEL,TI,"shell < TI > < 5 section points > : SNEG, (fraction = -1.0)",132.008
C:/Users/srbb21/AppData/Local/Temp/rx18_gr30001521653382.841.odb,RELAX,Increment    105: Step Time =    1.000,SHELL-1,386,-9.27927,3.75,15.4218,ASSEMBLY_SHELL-1_ALLEL,TI,"shell < TI > < 5 section points > : SNEG, (fraction = -1.0)",131.83
C:/Users/srbb21/AppData/Local/Temp/rx18_gr30001521653382.841.odb,RELAX,Increment    105: Step Time =    1.000,SHELL-1,386,-9.27927,3.75,15.4218,ASSEMBLY_SHELL-1_ALLEL,TI,"shell < TI > < 5 section points > : SPOS, (fraction = 1.0)",124.744
C:/Users/srbb21/AppData/Local/Temp/rx18_gr30001521653382.841.odb,RELAX,Increment    105: Step Time =    1.000,SHELL-1,387,-9.27927,4.25,15.4218,ASSEMBLY_SHELL-1_ALLEL,TI,"shell < TI > < 5 section points > : SPOS, (fraction = 1.0)",123.18
C:/Users/srbb21/AppData/Local/Temp/rx18_gr30001521653382.841.odb,RELAX,Increment    105: Step Time =    1.000,SHELL-1,387,-9.27927,4.25,15.4218,ASSEMBLY_SHELL-1_ALLEL,TI,"shell < TI > < 5 section points > : SNEG, (fraction = -1.0)",131.429
C:/Users/srbb21/AppData/Local/Temp/rx18_gr30001521653382.841.odb,RELAX,Increment    105: Step Time =    1.000,SHELL-1,388,-9.27927,4.75,15.4218,ASSEMBLY_SHELL-1_ALLEL,TI,"shell < TI > < 5 section points > : SPOS, (fraction = 1.0)",121.703
C:/Users/srbb21/AppData/Local/Temp/rx18_gr30001521653382.841.odb,RELAX,Increment    105: Step Time =    1.000,SHELL-1,388,-9.27927,4.75,15.4218,ASSEMBLY_SHELL-1_ALLEL,TI,"shell < TI > < 5 section points > : SNEG, (fraction = -1.0)",130.677
C:/Users/srbb21/AppData/Local/Temp/rx18_gr30001521653382.841.odb,RELAX,Increment    105: Step Time =    1.000,SHELL-1,389,-9.27927,5.25,15.4218,ASSEMBLY_SHELL-1_ALLEL,TI,"shell < TI > < 5 section points > : SPOS, (fraction = 1.0)",120.483
C:/Users/srbb21/AppData/Local/Temp/rx18_gr30001521653382.841.odb,RELAX,Increment    105: Step Time =    1.000,SHELL-1,389,-9.27927,5.25,15.4218,ASSEMBLY_SHELL-1_ALLEL,TI,"shell < TI > < 5 section points > : SNEG, (fraction = -1.0)",129.41
C:/Users/srbb21/AppData/Local/Temp/rx18_gr30001521653382.841.odb,RELAX,Increment    105: Step Time =    1.000,SHELL-1,390,-9.27927,5.75,15.4218,ASSEMBLY_SHELL-1_ALLEL,TI,"shell < TI > < 5 section points > : SNEG, (fraction = -1.0)",127.41
C:/Users/srbb21/AppData/Local/Temp/rx18_gr30001521653382.841.odb,RELAX,Increment    105: Step Time =    1.000,SHELL-1,390,-9.27927,5.75,15.4218,ASSEMBLY_SHELL-1_ALLEL,TI,"shell < TI > < 5 section points > : SPOS, (fraction = 1.0)",119.754
C:/Users/srbb21/AppData/Local/Temp/rx18_gr30001521653382.841.odb,RELAX,Increment    105: Step Time =    1.000,SHELL-1,391,-9.27927,6.25,15.4218,ASSEMBLY_SHELL-1_ALLEL,TI,"shell < TI > < 5 section points > : SPOS, (fraction = 1.0)",119.837
C:/Users/srbb21/AppData/Local/Temp/rx18_gr30001521653382.841.odb,RELAX,Increment    105: Step Time =    1.000,SHELL-1,391,-9.27927,6.25,15.4218,ASSEMBLY_SHELL-1_ALLEL,TI,"shell < TI > < 5 section points > : SNEG, (fraction = -1.0)",124.418
C:/Users/srbb21/AppData/Local/Temp/rx18_gr30001521653382.841.odb,RELAX,Increment    105: Step Time =    1.000,SHELL-1,392,-9.27927,6.75,15.4218,ASSEMBLY_SHELL-1_ALLEL,TI,"shell < TI > < 5 section points > : SPOS, (fraction = 1.0)",121.117
C:/Users/srbb21/AppData/Local/Temp/rx18_gr30001521653382.841.odb,RELAX,Increment    105: Step Time =    1.000,SHELL-1,392,-9.27927,6.75,15.4218,ASSEMBLY_SHELL-1_ALLEL,TI,"shell < TI > < 5 section points > : SNEG, (fraction = -1.0)",120.148
C:/Users/srbb21/AppData/Local/Temp/rx18_gr30001521653382.841.odb,RELAX,Increment    105: Step Time =    1.000,SHELL-1,393,-9.27927,7.25,15.4218,ASSEMBLY_SHELL-1_ALLEL,TI,"shell < TI > < 5 section points > : SPOS, (fraction = 1.0)",124.022
C:/Users/srbb21/AppData/Local/Temp/rx18_gr30001521653382.841.odb,RELAX,Increment    105: Step Time =    1.000,SHELL-1,393,-9.27927,7.25,15.4218,ASSEMBLY_SHELL-1_ALLEL,TI,"shell < TI > < 5 section points > : SNEG, (fraction = -1.0)",114.322
C:/Users/srbb21/AppData/Local/Temp/rx18_gr30001521653382.841.odb,RELAX,Increment    105: Step Time =    1.000,SHELL-1,394,-9.27927,7.75,15.4218,ASSEMBLY_SHELL-1_ALLEL,TI,"shell < TI > < 5 section points > : SNEG, (fraction = -1.0)",106.725
C:/Users/srbb21/AppData/Local/Temp/rx18_gr30001521653382.841.odb,RELAX,Increment    105: Step Time =    1.000,SHELL-1,394,-9.27927,7.75,15.4218,ASSEMBLY_SHELL-1_ALLEL,TI,"shell < TI > < 5 section points > : SPOS, (fraction = 1.0)",128.9
C:/Users/srbb21/AppData/Local/Temp/rx18_gr30001521653382.841.odb,RELAX,Increment    105: Step Time =    1.000,SHELL-1,395,-9.27927,8.25,15.4218,ASSEMBLY_SHELL-1_ALLEL,TI,"shell < TI > < 5 section points > : SPOS, (fraction = 1.0)",135.921
C:/Users/srbb21/AppData/Local/Temp/rx18_gr30001521653382.841.odb,RELAX,Increment    105: Step Time =    1.000,SHELL-1,395,-9.27927,8.25,15.4218,ASSEMBLY_SHELL-1_ALLEL,TI,"shell < TI > < 5 section points > : SNEG, (fraction = -1.0)",97.3439
C:/Users/srbb21/AppData/Local/Temp/rx18_gr30001521653382.841.odb,RELAX,Increment    105: Step Time =    1.000,SHELL-1,396,-9.27927,8.75,15.4218,ASSEMBLY_SHELL-1_ALLEL,TI,"shell < TI > < 5 section points > : SPOS, (fraction = 1.0)",144.911
C:/Users/srbb21/AppData/Local/Temp/rx18_gr30001521653382.841.odb,RELAX,Increment    105: Step Time =    1.000,SHELL-1,396,-9.27927,8.75,15.4218,ASSEMBLY_SHELL-1_ALLEL,TI,"shell < TI > < 5 section points > : SNEG, (fraction = -1.0)",86.4459
C:/Users/srbb21/AppData/Local/Temp/rx18_gr30001521653382.841.odb,RELAX,Increment    105: Step Time =    1.000,SHELL-1,397,-8.84736,-8.75,15.6736,ASSEMBLY_SHELL-1_ALLEL,TI,"shell < TI > < 5 section points > : SPOS, (fraction = 1.0)",144.739
C:/Users/srbb21/AppData/Local/Temp/rx18_gr30001521653382.841.odb,RELAX,Increment    105: Step Time =    1.000,SHELL-1,397,-8.84736,-8.75,15.6736,ASSEMBLY_SHELL-1_ALLEL,TI,"shell < TI > < 5 section points > : SNEG, (fraction = -1.0)",90.4838
C:/Users/srbb21/AppData/Local/Temp/rx18_gr30001521653382.841.odb,RELAX,Increment    105: Step Time =    1.000,SHELL-1,398,-8.84736,-8.25,15.6736,ASSEMBLY_SHELL-1_ALLEL,TI,"shell < TI > < 5 section points > : SNEG, (fraction = -1.0)",99.9025
C:/Users/srbb21/AppData/Local/Temp/rx18_gr30001521653382.841.odb,RELAX,Increment    105: Step Time =    1.000,SHELL-1,398,-8.84736,-8.25,15.6736,ASSEMBLY_SHELL-1_ALLEL,TI,"shell < TI > < 5 section points > : SPOS, (fraction = 1.0)",137.12
C:/Users/srbb21/AppData/Local/Temp/rx18_gr30001521653382.841.odb,RELAX,Increment    105: Step Time =    1.000,SHELL-1,399,-8.84736,-7.75,15.6736,ASSEMBLY_SHELL-1_ALLEL,TI,"shell < TI > < 5 section points > : SPOS, (fraction = 1.0)",130.839
C:/Users/srbb21/AppData/Local/Temp/rx18_gr30001521653382.841.odb,RELAX,Increment    105: Step Time =    1.000,SHELL-1,399,-8.84736,-7.75,15.6736,ASSEMBLY_SHELL-1_ALLEL,TI,"shell < TI > < 5 section points > : SNEG, (fraction = -1.0)",108.31
C:/Users/srbb21/AppData/Local/Temp/rx18_gr30001521653382.841.odb,RELAX,Increment    105: Step Time =    1.000,SHELL-1,400,-8.84736,-7.25,15.6736,ASSEMBLY_SHELL-1_ALLEL,TI,"shell < TI > < 5 section points > : SPOS, (fraction = 1.0)",126.136
C:/Users/srbb21/AppData/Local/Temp/rx18_gr30001521653382.841.odb,RELAX,Increment    105: Step Time =    1.000,SHELL-1,400,-8.84736,-7.25,15.6736,ASSEMBLY_SHELL-1_ALLEL,TI,"shell < TI > < 5 section points > : SNEG, (fraction = -1.0)",115.37
C:/Users/srbb21/AppData/Local/Temp/rx18_gr30001521653382.841.odb,RELAX,Increment    105: Step Time =    1.000,SHELL-1,401,-8.84736,-6.75,15.6736,ASSEMBLY_SHELL-1_ALLEL,TI,"shell < TI > < 5 section points > : SPOS, (fraction = 1.0)",123.001
C:/Users/srbb21/AppData/Local/Temp/rx18_gr30001521653382.841.odb,RELAX,Increment    105: Step Time =    1.000,SHELL-1,401,-8.84736,-6.75,15.6736,ASSEMBLY_SHELL-1_ALLEL,TI,"shell < TI > < 5 section points > : SNEG, (fraction = -1.0)",120.977
C:/Users/srbb21/AppData/Local/Temp/rx18_gr30001521653382.841.odb,RELAX,Increment    105: Step Time =    1.000,SHELL-1,402,-8.84736,-6.25,15.6736,ASSEMBLY_SHELL-1_ALLEL,TI,"shell < TI > < 5 section points > : SNEG, (fraction = -1.0)",125.238
C:/Users/srbb21/AppData/Local/Temp/rx18_gr30001521653382.841.odb,RELAX,Increment    105: Step Time =    1.000,SHELL-1,402,-8.84736,-6.25,15.6736,ASSEMBLY_SHELL-1_ALLEL,TI,"shell < TI > < 5 section points > : SPOS, (fraction = 1.0)",121.241
C:/Users/srbb21/AppData/Local/Temp/rx18_gr30001521653382.841.odb,RELAX,Increment    105: Step Time =    1.000,SHELL-1,403,-8.84736,-5.75,15.6736,ASSEMBLY_SHELL-1_ALLEL,TI,"shell < TI > < 5 section points > : SPOS, (fraction = 1.0)",120.584
C:/Users/srbb21/AppData/Local/Temp/rx18_gr30001521653382.841.odb,RELAX,Increment    105: Step Time =    1.000,SHELL-1,403,-8.84736,-5.75,15.6736,ASSEMBLY_SHELL-1_ALLEL,TI,"shell < TI > < 5 section points > : SNEG, (fraction = -1.0)",128.329
C:/Users/srbb21/AppData/Local/Temp/rx18_gr30001521653382.841.odb,RELAX,Increment    105: Step Time =    1.000,SHELL-1,404,-8.84736,-5.25,15.6736,ASSEMBLY_SHELL-1_ALLEL,TI,"shell < TI > < 5 section points > : SPOS, (fraction = 1.0)",120.741
C:/Users/srbb21/AppData/Local/Temp/rx18_gr30001521653382.841.odb,RELAX,Increment    105: Step Time =    1.000,SHELL-1,404,-8.84736,-5.25,15.6736,ASSEMBLY_SHELL-1_ALLEL,TI,"shell < TI > < 5 section points > : SNEG, (fraction = -1.0)",130.469
C:/Users/srbb21/AppData/Local/Temp/rx18_gr30001521653382.841.odb,RELAX,Increment    105: Step Time =    1.000,SHELL-1,405,-8.84736,-4.75,15.6736,ASSEMBLY_SHELL-1_ALLEL,TI,"shell < TI > < 5 section points > : SPOS, (fraction = 1.0)",121.454
C:/Users/srbb21/AppData/Local/Temp/rx18_gr30001521653382.841.odb,RELAX,Increment    105: Step Time =    1.000,SHELL-1,405,-8.84736,-4.75,15.6736,ASSEMBLY_SHELL-1_ALLEL,TI,"shell < TI > < 5 section points > : SNEG, (fraction = -1.0)",131.873
C:/Users/srbb21/AppData/Local/Temp/rx18_gr30001521653382.841.odb,RELAX,Increment    105: Step Time =    1.000,SHELL-1,406,-8.84736,-4.25,15.6736,ASSEMBLY_SHELL-1_ALLEL,TI,"shell < TI > < 5 section points > : SNEG, (fraction = -1.0)",132.733
C:/Users/srbb21/AppData/Local/Temp/rx18_gr30001521653382.841.odb,RELAX,Increment    105: Step Time =    1.000,SHELL-1,406,-8.84736,-4.25,15.6736,ASSEMBLY_SHELL-1_ALLEL,TI,"shell < TI > < 5 section points > : SPOS, (fraction = 1.0)",122.51
C:/Users/srbb21/AppData/Local/Temp/rx18_gr30001521653382.841.odb,RELAX,Increment    105: Step Time =    1.000,SHELL-1,407,-8.84736,-3.75,15.6736,ASSEMBLY_SHELL-1_ALLEL,TI,"shell < TI > < 5 section points > : SPOS, (fraction = 1.0)",123.742
C:/Users/srbb21/AppData/Local/Temp/rx18_gr30001521653382.841.odb,RELAX,Increment    105: Step Time =    1.000,SHELL-1,407,-8.84736,-3.75,15.6736,ASSEMBLY_SHELL-1_ALLEL,TI,"shell < TI > < 5 section points > : SNEG, (fraction = -1.0)",133.209
C:/Users/srbb21/AppData/Local/Temp/rx18_gr30001521653382.841.odb,RELAX,Increment    105: Step Time =    1.000,SHELL-1,408,-8.84736,-3.25,15.6736,ASSEMBLY_SHELL-1_ALLEL,TI,"shell < TI > < 5 section points > : SPOS, (fraction = 1.0)",125.025
C:/Users/srbb21/AppData/Local/Temp/rx18_gr30001521653382.841.odb,RELAX,Increment    105: Step Time =    1.000,SHELL-1,408,-8.84736,-3.25,15.6736,ASSEMBLY_SHELL-1_ALLEL,TI,"shell < TI > < 5 section points > : SNEG, (fraction = -1.0)",133.429
C:/Users/srbb21/AppData/Local/Temp/rx18_gr30001521653382.841.odb,RELAX,Increment    105: Step Time =    1.000,SHELL-1,409,-8.84736,-2.75,15.6736,ASSEMBLY_SHELL-1_ALLEL,TI,"shell < TI > < 5 section points > : SPOS, (fraction = 1.0)",126.261
C:/Users/srbb21/AppData/Local/Temp/rx18_gr30001521653382.841.odb,RELAX,Increment    105: Step Time =    1.000,SHELL-1,409,-8.84736,-2.75,15.6736,ASSEMBLY_SHELL-1_ALLEL,TI,"shell < TI > < 5 section points > : SNEG, (fraction = -1.0)",133.488
C:/Users/srbb21/AppData/Local/Temp/rx18_gr30001521653382.841.odb,RELAX,Increment    105: Step Time =    1.000,SHELL-1,410,-8.84736,-2.25,15.6736,ASSEMBLY_SHELL-1_ALLEL,TI,"shell < TI > < 5 section points > : SPOS, (fraction = 1.0)",127.381
C:/Users/srbb21/AppData/Local/Temp/rx18_gr30001521653382.841.odb,RELAX,Increment    105: Step Time =    1.000,SHELL-1,410,-8.84736,-2.25,15.6736,ASSEMBLY_SHELL-1_ALLEL,TI,"shell < TI > < 5 section points > : SNEG, (fraction = -1.0)",133.456
C:/Users/srbb21/AppData/Local/Temp/rx18_gr30001521653382.841.odb,RELAX,Increment    105: Step Time =    1.000,SHELL-1,411,-8.84736,-1.75,15.6736,ASSEMBLY_SHELL-1_ALLEL,TI,"shell < TI > < 5 section points > : SNEG, (fraction = -1.0)",133.384
C:/Users/srbb21/AppData/Local/Temp/rx18_gr30001521653382.841.odb,RELAX,Increment    105: Step Time =    1.000,SHELL-1,411,-8.84736,-1.75,15.6736,ASSEMBLY_SHELL-1_ALLEL,TI,"shell < TI > < 5 section points > : SPOS, (fraction = 1.0)",128.33
C:/Users/srbb21/AppData/Local/Temp/rx18_gr30001521653382.841.odb,RELAX,Increment    105: Step Time =    1.000,SHELL-1,412,-8.84736,-1.25,15.6736,ASSEMBLY_SHELL-1_ALLEL,TI,"shell < TI > < 5 section points > : SPOS, (fraction = 1.0)",129.072
C:/Users/srbb21/AppData/Local/Temp/rx18_gr30001521653382.841.odb,RELAX,Increment    105: Step Time =    1.000,SHELL-1,412,-8.84736,-1.25,15.6736,ASSEMBLY_SHELL-1_ALLEL,TI,"shell < TI > < 5 section points > : SNEG, (fraction = -1.0)",133.304
C:/Users/srbb21/AppData/Local/Temp/rx18_gr30001521653382.841.odb,RELAX,Increment    105: Step Time =    1.000,SHELL-1,413,-8.84736,-0.75,15.6736,ASSEMBLY_SHELL-1_ALLEL,TI,"shell < TI > < 5 section points > : SPOS, (fraction = 1.0)",129.58
C:/Users/srbb21/AppData/Local/Temp/rx18_gr30001521653382.841.odb,RELAX,Increment    105: Step Time =    1.000,SHELL-1,413,-8.84736,-0.75,15.6736,ASSEMBLY_SHELL-1_ALLEL,TI,"shell < TI > < 5 section points > : SNEG, (fraction = -1.0)",133.24
C:/Users/srbb21/AppData/Local/Temp/rx18_gr30001521653382.841.odb,RELAX,Increment    105: Step Time =    1.000,SHELL-1,414,-8.84736,-0.25,15.6736,ASSEMBLY_SHELL-1_ALLEL,TI,"shell < TI > < 5 section points > : SPOS, (fraction = 1.0)",129.837
C:/Users/srbb21/AppData/Local/Temp/rx18_gr30001521653382.841.odb,RELAX,Increment    105: Step Time =    1.000,SHELL-1,414,-8.84736,-0.25,15.6736,ASSEMBLY_SHELL-1_ALLEL,TI,"shell < TI > < 5 section points > : SNEG, (fraction = -1.0)",133.205
C:/Users/srbb21/AppData/Local/Temp/rx18_gr30001521653382.841.odb,RELAX,Increment    105: Step Time =    1.000,SHELL-1,415,-8.84736,0.25,15.6736,ASSEMBLY_SHELL-1_ALLEL,TI,"shell < TI > < 5 section points > : SNEG, (fraction = -1.0)",133.205
C:/Users/srbb21/AppData/Local/Temp/rx18_gr30001521653382.841.odb,RELAX,Increment    105: Step Time =    1.000,SHELL-1,415,-8.84736,0.25,15.6736,ASSEMBLY_SHELL-1_ALLEL,TI,"shell < TI > < 5 section points > : SPOS, (fraction = 1.0)",129.837
C:/Users/srbb21/AppData/Local/Temp/rx18_gr30001521653382.841.odb,RELAX,Increment    105: Step Time =    1.000,SHELL-1,416,-8.84736,0.75,15.6736,ASSEMBLY_SHELL-1_ALLEL,TI,"shell < TI > < 5 section points > : SPOS, (fraction = 1.0)",129.58
C:/Users/srbb21/AppData/Local/Temp/rx18_gr30001521653382.841.odb,RELAX,Increment    105: Step Time =    1.000,SHELL-1,416,-8.84736,0.75,15.6736,ASSEMBLY_SHELL-1_ALLEL,TI,"shell < TI > < 5 section points > : SNEG, (fraction = -1.0)",133.24
C:/Users/srbb21/AppData/Local/Temp/rx18_gr30001521653382.841.odb,RELAX,Increment    105: Step Time =    1.000,SHELL-1,417,-8.84736,1.25,15.6736,ASSEMBLY_SHELL-1_ALLEL,TI,"shell < TI > < 5 section points > : SPOS, (fraction = 1.0)",129.072
C:/Users/srbb21/AppData/Local/Temp/rx18_gr30001521653382.841.odb,RELAX,Increment    105: Step Time =    1.000,SHELL-1,417,-8.84736,1.25,15.6736,ASSEMBLY_SHELL-1_ALLEL,TI,"shell < TI > < 5 section points > : SNEG, (fraction = -1.0)",133.304
C:/Users/srbb21/AppData/Local/Temp/rx18_gr30001521653382.841.odb,RELAX,Increment    105: Step Time =    1.000,SHELL-1,418,-8.84736,1.75,15.6736,ASSEMBLY_SHELL-1_ALLEL,TI,"shell < TI > < 5 section points > : SPOS, (fraction = 1.0)",128.33
C:/Users/srbb21/AppData/Local/Temp/rx18_gr30001521653382.841.odb,RELAX,Increment    105: Step Time =    1.000,SHELL-1,418,-8.84736,1.75,15.6736,ASSEMBLY_SHELL-1_ALLEL,TI,"shell < TI > < 5 section points > : SNEG, (fraction = -1.0)",133.384
C:/Users/srbb21/AppData/Local/Temp/rx18_gr30001521653382.841.odb,RELAX,Increment    105: Step Time =    1.000,SHELL-1,419,-8.84736,2.25,15.6736,ASSEMBLY_SHELL-1_ALLEL,TI,"shell < TI > < 5 section points > : SNEG, (fraction = -1.0)",133.456
C:/Users/srbb21/AppData/Local/Temp/rx18_gr30001521653382.841.odb,RELAX,Increment    105: Step Time =    1.000,SHELL-1,419,-8.84736,2.25,15.6736,ASSEMBLY_SHELL-1_ALLEL,TI,"shell < TI > < 5 section points > : SPOS, (fraction = 1.0)",127.381
C:/Users/srbb21/AppData/Local/Temp/rx18_gr30001521653382.841.odb,RELAX,Increment    105: Step Time =    1.000,SHELL-1,420,-8.84736,2.75,15.6736,ASSEMBLY_SHELL-1_ALLEL,TI,"shell < TI > < 5 section points > : SPOS, (fraction = 1.0)",126.261
C:/Users/srbb21/AppData/Local/Temp/rx18_gr30001521653382.841.odb,RELAX,Increment    105: Step Time =    1.000,SHELL-1,420,-8.84736,2.75,15.6736,ASSEMBLY_SHELL-1_ALLEL,TI,"shell < TI > < 5 section points > : SNEG, (fraction = -1.0)",133.488
C:/Users/srbb21/AppData/Local/Temp/rx18_gr30001521653382.841.odb,RELAX,Increment    105: Step Time =    1.000,SHELL-1,421,-8.84736,3.25,15.6736,ASSEMBLY_SHELL-1_ALLEL,TI,"shell < TI > < 5 section points > : SPOS, (fraction = 1.0)",125.025
C:/Users/srbb21/AppData/Local/Temp/rx18_gr30001521653382.841.odb,RELAX,Increment    105: Step Time =    1.000,SHELL-1,421,-8.84736,3.25,15.6736,ASSEMBLY_SHELL-1_ALLEL,TI,"shell < TI > < 5 section points > : SNEG, (fraction = -1.0)",133.429
C:/Users/srbb21/AppData/Local/Temp/rx18_gr30001521653382.841.odb,RELAX,Increment    105: Step Time =    1.000,SHELL-1,422,-8.84736,3.75,15.6736,ASSEMBLY_SHELL-1_ALLEL,TI,"shell < TI > < 5 section points > : SPOS, (fraction = 1.0)",123.742
C:/Users/srbb21/AppData/Local/Temp/rx18_gr30001521653382.841.odb,RELAX,Increment    105: Step Time =    1.000,SHELL-1,422,-8.84736,3.75,15.6736,ASSEMBLY_SHELL-1_ALLEL,TI,"shell < TI > < 5 section points > : SNEG, (fraction = -1.0)",133.209
C:/Users/srbb21/AppData/Local/Temp/rx18_gr30001521653382.841.odb,RELAX,Increment    105: Step Time =    1.000,SHELL-1,423,-8.84736,4.25,15.6736,ASSEMBLY_SHELL-1_ALLEL,TI,"shell < TI > < 5 section points > : SNEG, (fraction = -1.0)",132.733
C:/Users/srbb21/AppData/Local/Temp/rx18_gr30001521653382.841.odb,RELAX,Increment    105: Step Time =    1.000,SHELL-1,423,-8.84736,4.25,15.6736,ASSEMBLY_SHELL-1_ALLEL,TI,"shell < TI > < 5 section points > : SPOS, (fraction = 1.0)",122.51
C:/Users/srbb21/AppData/Local/Temp/rx18_gr30001521653382.841.odb,RELAX,Increment    105: Step Time =    1.000,SHELL-1,424,-8.84736,4.75,15.6736,ASSEMBLY_SHELL-1_ALLEL,TI,"shell < TI > < 5 section points > : SPOS, (fraction = 1.0)",121.454
C:/Users/srbb21/AppData/Local/Temp/rx18_gr30001521653382.841.odb,RELAX,Increment    105: Step Time =    1.000,SHELL-1,424,-8.84736,4.75,15.6736,ASSEMBLY_SHELL-1_ALLEL,TI,"shell < TI > < 5 section points > : SNEG, (fraction = -1.0)",131.873
C:/Users/srbb21/AppData/Local/Temp/rx18_gr30001521653382.841.odb,RELAX,Increment    105: Step Time =    1.000,SHELL-1,425,-8.84736,5.25,15.6736,ASSEMBLY_SHELL-1_ALLEL,TI,"shell < TI > < 5 section points > : SPOS, (fraction = 1.0)",120.741
C:/Users/srbb21/AppData/Local/Temp/rx18_gr30001521653382.841.odb,RELAX,Increment    105: Step Time =    1.000,SHELL-1,425,-8.84736,5.25,15.6736,ASSEMBLY_SHELL-1_ALLEL,TI,"shell < TI > < 5 section points > : SNEG, (fraction = -1.0)",130.469
C:/Users/srbb21/AppData/Local/Temp/rx18_gr30001521653382.841.odb,RELAX,Increment    105: Step Time =    1.000,SHELL-1,426,-8.84736,5.75,15.6736,ASSEMBLY_SHELL-1_ALLEL,TI,"shell < TI > < 5 section points > : SPOS, (fraction = 1.0)",120.584
C:/Users/srbb21/AppData/Local/Temp/rx18_gr30001521653382.841.odb,RELAX,Increment    105: Step Time =    1.000,SHELL-1,426,-8.84736,5.75,15.6736,ASSEMBLY_SHELL-1_ALLEL,TI,"shell < TI > < 5 section points > : SNEG, (fraction = -1.0)",128.329
C:/Users/srbb21/AppData/Local/Temp/rx18_gr30001521653382.841.odb,RELAX,Increment    105: Step Time =    1.000,SHELL-1,427,-8.84736,6.25,15.6736,ASSEMBLY_SHELL-1_ALLEL,TI,"shell < TI > < 5 section points > : SPOS, (fraction = 1.0)",121.241
C:/Users/srbb21/AppData/Local/Temp/rx18_gr30001521653382.841.odb,RELAX,Increment    105: Step Time =    1.000,SHELL-1,427,-8.84736,6.25,15.6736,ASSEMBLY_SHELL-1_ALLEL,TI,"shell < TI > < 5 section points > : SNEG, (fraction = -1.0)",125.238
C:/Users/srbb21/AppData/Local/Temp/rx18_gr30001521653382.841.odb,RELAX,Increment    105: Step Time =    1.000,SHELL-1,428,-8.84736,6.75,15.6736,ASSEMBLY_SHELL-1_ALLEL,TI,"shell < TI > < 5 section points > : SNEG, (fraction = -1.0)",120.977
C:/Users/srbb21/AppData/Local/Temp/rx18_gr30001521653382.841.odb,RELAX,Increment    105: Step Time =    1.000,SHELL-1,428,-8.84736,6.75,15.6736,ASSEMBLY_SHELL-1_ALLEL,TI,"shell < TI > < 5 section points > : SPOS, (fraction = 1.0)",123.001
C:/Users/srbb21/AppData/Local/Temp/rx18_gr30001521653382.841.odb,RELAX,Increment    105: Step Time =    1.000,SHELL-1,429,-8.84736,7.25,15.6736,ASSEMBLY_SHELL-1_ALLEL,TI,"shell < TI > < 5 section points > : SPOS, (fraction = 1.0)",126.136
C:/Users/srbb21/AppData/Local/Temp/rx18_gr30001521653382.841.odb,RELAX,Increment    105: Step Time =    1.000,SHELL-1,429,-8.84736,7.25,15.6736,ASSEMBLY_SHELL-1_ALLEL,TI,"shell < TI > < 5 section points > : SNEG, (fraction = -1.0)",115.37
C:/Users/srbb21/AppData/Local/Temp/rx18_gr30001521653382.841.odb,RELAX,Increment    105: Step Time =    1.000,SHELL-1,430,-8.84736,7.75,15.6736,ASSEMBLY_SHELL-1_ALLEL,TI,"shell < TI > < 5 section points > : SPOS, (fraction = 1.0)",130.839
C:/Users/srbb21/AppData/Local/Temp/rx18_gr30001521653382.841.odb,RELAX,Increment    105: Step Time =    1.000,SHELL-1,430,-8.84736,7.75,15.6736,ASSEMBLY_SHELL-1_ALLEL,TI,"shell < TI > < 5 section points > : SNEG, (fraction = -1.0)",108.31
C:/Users/srbb21/AppData/Local/Temp/rx18_gr30001521653382.841.odb,RELAX,Increment    105: Step Time =    1.000,SHELL-1,431,-8.84736,8.25,15.6736,ASSEMBLY_SHELL-1_ALLEL,TI,"shell < TI > < 5 section points > : SPOS, (fraction = 1.0)",137.12
C:/Users/srbb21/AppData/Local/Temp/rx18_gr30001521653382.841.odb,RELAX,Increment    105: Step Time =    1.000,SHELL-1,431,-8.84736,8.25,15.6736,ASSEMBLY_SHELL-1_ALLEL,TI,"shell < TI > < 5 section points > : SNEG, (fraction = -1.0)",99.9025
C:/Users/srbb21/AppData/Local/Temp/rx18_gr30001521653382.841.odb,RELAX,Increment    105: Step Time =    1.000,SHELL-1,432,-8.84736,8.75,15.6736,ASSEMBLY_SHELL-1_ALLEL,TI,"shell < TI > < 5 section points > : SNEG, (fraction = -1.0)",90.4838
C:/Users/srbb21/AppData/Local/Temp/rx18_gr30001521653382.841.odb,RELAX,Increment    105: Step Time =    1.000,SHELL-1,432,-8.84736,8.75,15.6736,ASSEMBLY_SHELL-1_ALLEL,TI,"shell < TI > < 5 section points > : SPOS, (fraction = 1.0)",144.739
C:/Users/srbb21/AppData/Local/Temp/rx18_gr30001521653382.841.odb,RELAX,Increment    105: Step Time =    1.000,SHELL-1,433,-8.40863,-8.75,15.9133,ASSEMBLY_SHELL-1_ALLEL,TI,"shell < TI > < 5 section points > : SPOS, (fraction = 1.0)",144.153
C:/Users/srbb21/AppData/Local/Temp/rx18_gr30001521653382.841.odb,RELAX,Increment    105: Step Time =    1.000,SHELL-1,433,-8.40863,-8.75,15.9133,ASSEMBLY_SHELL-1_ALLEL,TI,"shell < TI > < 5 section points > : SNEG, (fraction = -1.0)",93.7189
C:/Users/srbb21/AppData/Local/Temp/rx18_gr30001521653382.841.odb,RELAX,Increment    105: Step Time =    1.000,SHELL-1,434,-8.40863,-8.25,15.9133,ASSEMBLY_SHELL-1_ALLEL,TI,"shell < TI > < 5 section points > : SPOS, (fraction = 1.0)",137.649
C:/Users/srbb21/AppData/Local/Temp/rx18_gr30001521653382.841.odb,RELAX,Increment    105: Step Time =    1.000,SHELL-1,434,-8.40863,-8.25,15.9133,ASSEMBLY_SHELL-1_ALLEL,TI,"shell < TI > < 5 section points > : SNEG, (fraction = -1.0)",101.872
C:/Users/srbb21/AppData/Local/Temp/rx18_gr30001521653382.841.odb,RELAX,Increment    105: Step Time =    1.000,SHELL-1,435,-8.40863,-7.75,15.9133,ASSEMBLY_SHELL-1_ALLEL,TI,"shell < TI > < 5 section points > : SPOS, (fraction = 1.0)",132.041
C:/Users/srbb21/AppData/Local/Temp/rx18_gr30001521653382.841.odb,RELAX,Increment    105: Step Time =    1.000,SHELL-1,435,-8.40863,-7.75,15.9133,ASSEMBLY_SHELL-1_ALLEL,TI,"shell < TI > < 5 section points > : SNEG, (fraction = -1.0)",109.365
C:/Users/srbb21/AppData/Local/Temp/rx18_gr30001521653382.841.odb,RELAX,Increment    105: Step Time =    1.000,SHELL-1,436,-8.40863,-7.25,15.9133,ASSEMBLY_SHELL-1_ALLEL,TI,"shell < TI > < 5 section points > : SNEG, (fraction = -1.0)",115.838
C:/Users/srbb21/AppData/Local/Temp/rx18_gr30001521653382.841.odb,RELAX,Increment    105: Step Time =    1.000,SHELL-1,436,-8.40863,-7.25,15.9133,ASSEMBLY_SHELL-1_ALLEL,TI,"shell < TI > < 5 section points > : SPOS, (fraction = 1.0)",127.593
C:/Users/srbb21/AppData/Local/Temp/rx18_gr30001521653382.841.odb,RELAX,Increment    105: Step Time =    1.000,SHELL-1,437,-8.40863,-6.75,15.9133,ASSEMBLY_SHELL-1_ALLEL,TI,"shell < TI > < 5 section points > : SPOS, (fraction = 1.0)",124.368
C:/Users/srbb21/AppData/Local/Temp/rx18_gr30001521653382.841.odb,RELAX,Increment    105: Step Time =    1.000,SHELL-1,437,-8.40863,-6.75,15.9133,ASSEMBLY_SHELL-1_ALLEL,TI,"shell < TI > < 5 section points > : SNEG, (fraction = -1.0)",121.137
C:/Users/srbb21/AppData/Local/Temp/rx18_gr30001521653382.841.odb,RELAX,Increment    105: Step Time =    1.000,SHELL-1,438,-8.40863,-6.25,15.9133,ASSEMBLY_SHELL-1_ALLEL,TI,"shell < TI > < 5 section points > : SPOS, (fraction = 1.0)",122.285
C:/Users/srbb21/AppData/Local/Temp/rx18_gr30001521653382.841.odb,RELAX,Increment    105: Step Time =    1.000,SHELL-1,438,-8.40863,-6.25,15.9133,ASSEMBLY_SHELL-1_ALLEL,TI,"shell < TI > < 5 section points > : SNEG, (fraction = -1.0)",125.283
C:/Users/srbb21/AppData/Local/Temp/rx18_gr30001521653382.841.odb,RELAX,Increment    105: Step Time =    1.000,SHELL-1,439,-8.40863,-5.75,15.9133,ASSEMBLY_SHELL-1_ALLEL,TI,"shell < TI > < 5 section points > : SPOS, (fraction = 1.0)",121.177
C:/Users/srbb21/AppData/Local/Temp/rx18_gr30001521653382.841.odb,RELAX,Increment    105: Step Time =    1.000,SHELL-1,439,-8.40863,-5.75,15.9133,ASSEMBLY_SHELL-1_ALLEL,TI,"shell < TI > < 5 section points > : SNEG, (fraction = -1.0)",128.383
C:/Users/srbb21/AppData/Local/Temp/rx18_gr30001521653382.841.odb,RELAX,Increment    105: Step Time =    1.000,SHELL-1,440,-8.40863,-5.25,15.9133,ASSEMBLY_SHELL-1_ALLEL,TI,"shell < TI > < 5 section points > : SNEG, (fraction = -1.0)",130.595
C:/Users/srbb21/AppData/Local/Temp/rx18_gr30001521653382.841.odb,RELAX,Increment    105: Step Time =    1.000,SHELL-1,440,-8.40863,-5.25,15.9133,ASSEMBLY_SHELL-1_ALLEL,TI,"shell < TI > < 5 section points > : SPOS, (fraction = 1.0)",120.841
C:/Users/srbb21/AppData/Local/Temp/rx18_gr30001521653382.841.odb,RELAX,Increment    105: Step Time =    1.000,SHELL-1,441,-8.40863,-4.75,15.9133,ASSEMBLY_SHELL-1_ALLEL,TI,"shell < TI > < 5 section points > : SPOS, (fraction = 1.0)",121.078
C:/Users/srbb21/AppData/Local/Temp/rx18_gr30001521653382.841.odb,RELAX,Increment    105: Step Time =    1.000,SHELL-1,441,-8.40863,-4.75,15.9133,ASSEMBLY_SHELL-1_ALLEL,TI,"shell < TI > < 5 section points > : SNEG, (fraction = -1.0)",132.091
C:/Users/srbb21/AppData/Local/Temp/rx18_gr30001521653382.841.odb,RELAX,Increment    105: Step Time =    1.000,SHELL-1,442,-8.40863,-4.25,15.9133,ASSEMBLY_SHELL-1_ALLEL,TI,"shell < TI > < 5 section points > : SPOS, (fraction = 1.0)",121.708
C:/Users/srbb21/AppData/Local/Temp/rx18_gr30001521653382.841.odb,RELAX,Increment    105: Step Time =    1.000,SHELL-1,442,-8.40863,-4.25,15.9133,ASSEMBLY_SHELL-1_ALLEL,TI,"shell < TI > < 5 section points > : SNEG, (fraction = -1.0)",133.038
C:/Users/srbb21/AppData/Local/Temp/rx18_gr30001521653382.841.odb,RELAX,Increment    105: Step Time =    1.000,SHELL-1,443,-8.40863,-3.75,15.9133,ASSEMBLY_SHELL-1_ALLEL,TI,"shell < TI > < 5 section points > : SPOS, (fraction = 1.0)",122.58
C:/Users/srbb21/AppData/Local/Temp/rx18_gr30001521653382.841.odb,RELAX,Increment    105: Step Time =    1.000,SHELL-1,443,-8.40863,-3.75,15.9133,ASSEMBLY_SHELL-1_ALLEL,TI,"shell < TI > < 5 section points > : SNEG, (fraction = -1.0)",133.583
C:/Users/srbb21/AppData/Local/Temp/rx18_gr30001521653382.841.odb,RELAX,Increment    105: Step Time =    1.000,SHELL-1,444,-8.40863,-3.25,15.9133,ASSEMBLY_SHELL-1_ALLEL,TI,"shell < TI > < 5 section points > : SPOS, (fraction = 1.0)",123.568
C:/Users/srbb21/AppData/Local/Temp/rx18_gr30001521653382.841.odb,RELAX,Increment    105: Step Time =    1.000,SHELL-1,444,-8.40863,-3.25,15.9133,ASSEMBLY_SHELL-1_ALLEL,TI,"shell < TI > < 5 section points > : SNEG, (fraction = -1.0)",133.85
C:/Users/srbb21/AppData/Local/Temp/rx18_gr30001521653382.841.odb,RELAX,Increment    105: Step Time =    1.000,SHELL-1,445,-8.40863,-2.75,15.9133,ASSEMBLY_SHELL-1_ALLEL,TI,"shell < TI > < 5 section points > : SNEG, (fraction = -1.0)",133.934
C:/Users/srbb21/AppData/Local/Temp/rx18_gr30001521653382.841.odb,RELAX,Increment    105: Step Time =    1.000,SHELL-1,445,-8.40863,-2.75,15.9133,ASSEMBLY_SHELL-1_ALLEL,TI,"shell < TI > < 5 section points > : SPOS, (fraction = 1.0)",124.574
C:/Users/srbb21/AppData/Local/Temp/rx18_gr30001521653382.841.odb,RELAX,Increment    105: Step Time =    1.000,SHELL-1,446,-8.40863,-2.25,15.9133,ASSEMBLY_SHELL-1_ALLEL,TI,"shell < TI > < 5 section points > : SPOS, (fraction = 1.0)",125.519
C:/Users/srbb21/AppData/Local/Temp/rx18_gr30001521653382.841.odb,RELAX,Increment    105: Step Time =    1.000,SHELL-1,446,-8.40863,-2.25,15.9133,ASSEMBLY_SHELL-1_ALLEL,TI,"shell < TI > < 5 section points > : SNEG, (fraction = -1.0)",133.914
C:/Users/srbb21/AppData/Local/Temp/rx18_gr30001521653382.841.odb,RELAX,Increment    105: Step Time =    1.000,SHELL-1,447,-8.40863,-1.75,15.9133,ASSEMBLY_SHELL-1_ALLEL,TI,"shell < TI > < 5 section points > : SPOS, (fraction = 1.0)",126.341
C:/Users/srbb21/AppData/Local/Temp/rx18_gr30001521653382.841.odb,RELAX,Increment    105: Step Time =    1.000,SHELL-1,447,-8.40863,-1.75,15.9133,ASSEMBLY_SHELL-1_ALLEL,TI,"shell < TI > < 5 section points > : SNEG, (fraction = -1.0)",133.842
C:/Users/srbb21/AppData/Local/Temp/rx18_gr30001521653382.841.odb,RELAX,Increment    105: Step Time =    1.000,SHELL-1,448,-8.40863,-1.25,15.9133,ASSEMBLY_SHELL-1_ALLEL,TI,"shell < TI > < 5 section points > : SPOS, (fraction = 1.0)",126.994
C:/Users/srbb21/AppData/Local/Temp/rx18_gr30001521653382.841.odb,RELAX,Increment    105: Step Time =    1.000,SHELL-1,448,-8.40863,-1.25,15.9133,ASSEMBLY_SHELL-1_ALLEL,TI,"shell < TI > < 5 section points > : SNEG, (fraction = -1.0)",133.759
C:/Users/srbb21/AppData/Local/Temp/rx18_gr30001521653382.841.odb,RELAX,Increment    105: Step Time =    1.000,SHELL-1,449,-8.40863,-0.75,15.9133,ASSEMBLY_SHELL-1_ALLEL,TI,"shell < TI > < 5 section points > : SNEG, (fraction = -1.0)",133.69
C:/Users/srbb21/AppData/Local/Temp/rx18_gr30001521653382.841.odb,RELAX,Increment    105: Step Time =    1.000,SHELL-1,449,-8.40863,-0.75,15.9133,ASSEMBLY_SHELL-1_ALLEL,TI,"shell < TI > < 5 section points > : SPOS, (fraction = 1.0)",127.448
C:/Users/srbb21/AppData/Local/Temp/rx18_gr30001521653382.841.odb,RELAX,Increment    105: Step Time =    1.000,SHELL-1,450,-8.40863,-0.25,15.9133,ASSEMBLY_SHELL-1_ALLEL,TI,"shell < TI > < 5 section points > : SPOS, (fraction = 1.0)",127.679
C:/Users/srbb21/AppData/Local/Temp/rx18_gr30001521653382.841.odb,RELAX,Increment    105: Step Time =    1.000,SHELL-1,450,-8.40863,-0.25,15.9133,ASSEMBLY_SHELL-1_ALLEL,TI,"shell < TI > < 5 section points > : SNEG, (fraction = -1.0)",133.652
C:/Users/srbb21/AppData/Local/Temp/rx18_gr30001521653382.841.odb,RELAX,Increment    105: Step Time =    1.000,SHELL-1,451,-8.40863,0.25,15.9133,ASSEMBLY_SHELL-1_ALLEL,TI,"shell < TI > < 5 section points > : SPOS, (fraction = 1.0)",127.679
C:/Users/srbb21/AppData/Local/Temp/rx18_gr30001521653382.841.odb,RELAX,Increment    105: Step Time =    1.000,SHELL-1,451,-8.40863,0.25,15.9133,ASSEMBLY_SHELL-1_ALLEL,TI,"shell < TI > < 5 section points > : SNEG, (fraction = -1.0)",133.652
C:/Users/srbb21/AppData/Local/Temp/rx18_gr30001521653382.841.odb,RELAX,Increment    105: Step Time =    1.000,SHELL-1,452,-8.40863,0.75,15.9133,ASSEMBLY_SHELL-1_ALLEL,TI,"shell < TI > < 5 section points > : SPOS, (fraction = 1.0)",127.448
C:/Users/srbb21/AppData/Local/Temp/rx18_gr30001521653382.841.odb,RELAX,Increment    105: Step Time =    1.000,SHELL-1,452,-8.40863,0.75,15.9133,ASSEMBLY_SHELL-1_ALLEL,TI,"shell < TI > < 5 section points > : SNEG, (fraction = -1.0)",133.69
C:/Users/srbb21/AppData/Local/Temp/rx18_gr30001521653382.841.odb,RELAX,Increment    105: Step Time =    1.000,SHELL-1,453,-8.40863,1.25,15.9133,ASSEMBLY_SHELL-1_ALLEL,TI,"shell < TI > < 5 section points > : SNEG, (fraction = -1.0)",133.759
C:/Users/srbb21/AppData/Local/Temp/rx18_gr30001521653382.841.odb,RELAX,Increment    105: Step Time =    1.000,SHELL-1,453,-8.40863,1.25,15.9133,ASSEMBLY_SHELL-1_ALLEL,TI,"shell < TI > < 5 section points > : SPOS, (fraction = 1.0)",126.994
C:/Users/srbb21/AppData/Local/Temp/rx18_gr30001521653382.841.odb,RELAX,Increment    105: Step Time =    1.000,SHELL-1,454,-8.40863,1.75,15.9133,ASSEMBLY_SHELL-1_ALLEL,TI,"shell < TI > < 5 section points > : SPOS, (fraction = 1.0)",126.341
C:/Users/srbb21/AppData/Local/Temp/rx18_gr30001521653382.841.odb,RELAX,Increment    105: Step Time =    1.000,SHELL-1,454,-8.40863,1.75,15.9133,ASSEMBLY_SHELL-1_ALLEL,TI,"shell < TI > < 5 section points > : SNEG, (fraction = -1.0)",133.842
C:/Users/srbb21/AppData/Local/Temp/rx18_gr30001521653382.841.odb,RELAX,Increment    105: Step Time =    1.000,SHELL-1,455,-8.40863,2.25,15.9133,ASSEMBLY_SHELL-1_ALLEL,TI,"shell < TI > < 5 section points > : SPOS, (fraction = 1.0)",125.519
C:/Users/srbb21/AppData/Local/Temp/rx18_gr30001521653382.841.odb,RELAX,Increment    105: Step Time =    1.000,SHELL-1,455,-8.40863,2.25,15.9133,ASSEMBLY_SHELL-1_ALLEL,TI,"shell < TI > < 5 section points > : SNEG, (fraction = -1.0)",133.914
C:/Users/srbb21/AppData/Local/Temp/rx18_gr30001521653382.841.odb,RELAX,Increment    105: Step Time =    1.000,SHELL-1,456,-8.40863,2.75,15.9133,ASSEMBLY_SHELL-1_ALLEL,TI,"shell < TI > < 5 section points > : SPOS, (fraction = 1.0)",124.574
C:/Users/srbb21/AppData/Local/Temp/rx18_gr30001521653382.841.odb,RELAX,Increment    105: Step Time =    1.000,SHELL-1,456,-8.40863,2.75,15.9133,ASSEMBLY_SHELL-1_ALLEL,TI,"shell < TI > < 5 section points > : SNEG, (fraction = -1.0)",133.934
C:/Users/srbb21/AppData/Local/Temp/rx18_gr30001521653382.841.odb,RELAX,Increment    105: Step Time =    1.000,SHELL-1,457,-8.40863,3.25,15.9133,ASSEMBLY_SHELL-1_ALLEL,TI,"shell < TI > < 5 section points > : SNEG, (fraction = -1.0)",133.85
C:/Users/srbb21/AppData/Local/Temp/rx18_gr30001521653382.841.odb,RELAX,Increment    105: Step Time =    1.000,SHELL-1,457,-8.40863,3.25,15.9133,ASSEMBLY_SHELL-1_ALLEL,TI,"shell < TI > < 5 section points > : SPOS, (fraction = 1.0)",123.568
C:/Users/srbb21/AppData/Local/Temp/rx18_gr30001521653382.841.odb,RELAX,Increment    105: Step Time =    1.000,SHELL-1,458,-8.40863,3.75,15.9133,ASSEMBLY_SHELL-1_ALLEL,TI,"shell < TI > < 5 section points > : SPOS, (fraction = 1.0)",122.58
C:/Users/srbb21/AppData/Local/Temp/rx18_gr30001521653382.841.odb,RELAX,Increment    105: Step Time =    1.000,SHELL-1,458,-8.40863,3.75,15.9133,ASSEMBLY_SHELL-1_ALLEL,TI,"shell < TI > < 5 section points > : SNEG, (fraction = -1.0)",133.583
C:/Users/srbb21/AppData/Local/Temp/rx18_gr30001521653382.841.odb,RELAX,Increment    105: Step Time =    1.000,SHELL-1,459,-8.40863,4.25,15.9133,ASSEMBLY_SHELL-1_ALLEL,TI,"shell < TI > < 5 section points > : SPOS, (fraction = 1.0)",121.708
C:/Users/srbb21/AppData/Local/Temp/rx18_gr30001521653382.841.odb,RELAX,Increment    105: Step Time =    1.000,SHELL-1,459,-8.40863,4.25,15.9133,ASSEMBLY_SHELL-1_ALLEL,TI,"shell < TI > < 5 section points > : SNEG, (fraction = -1.0)",133.038
C:/Users/srbb21/AppData/Local/Temp/rx18_gr30001521653382.841.odb,RELAX,Increment    105: Step Time =    1.000,SHELL-1,460,-8.40863,4.75,15.9133,ASSEMBLY_SHELL-1_ALLEL,TI,"shell < TI > < 5 section points > : SPOS, (fraction = 1.0)",121.078
C:/Users/srbb21/AppData/Local/Temp/rx18_gr30001521653382.841.odb,RELAX,Increment    105: Step Time =    1.000,SHELL-1,460,-8.40863,4.75,15.9133,ASSEMBLY_SHELL-1_ALLEL,TI,"shell < TI > < 5 section points > : SNEG, (fraction = -1.0)",132.091
C:/Users/srbb21/AppData/Local/Temp/rx18_gr30001521653382.841.odb,RELAX,Increment    105: Step Time =    1.000,SHELL-1,461,-8.40863,5.25,15.9133,ASSEMBLY_SHELL-1_ALLEL,TI,"shell < TI > < 5 section points > : SPOS, (fraction = 1.0)",120.841
C:/Users/srbb21/AppData/Local/Temp/rx18_gr30001521653382.841.odb,RELAX,Increment    105: Step Time =    1.000,SHELL-1,461,-8.40863,5.25,15.9133,ASSEMBLY_SHELL-1_ALLEL,TI,"shell < TI > < 5 section points > : SNEG, (fraction = -1.0)",130.595
C:/Users/srbb21/AppData/Local/Temp/rx18_gr30001521653382.841.odb,RELAX,Increment    105: Step Time =    1.000,SHELL-1,462,-8.40863,5.75,15.9133,ASSEMBLY_SHELL-1_ALLEL,TI,"shell < TI > < 5 section points > : SNEG, (fraction = -1.0)",128.383
C:/Users/srbb21/AppData/Local/Temp/rx18_gr30001521653382.841.odb,RELAX,Increment    105: Step Time =    1.000,SHELL-1,462,-8.40863,5.75,15.9133,ASSEMBLY_SHELL-1_ALLEL,TI,"shell < TI > < 5 section points > : SPOS, (fraction = 1.0)",121.177
C:/Users/srbb21/AppData/Local/Temp/rx18_gr30001521653382.841.odb,RELAX,Increment    105: Step Time =    1.000,SHELL-1,463,-8.40863,6.25,15.9133,ASSEMBLY_SHELL-1_ALLEL,TI,"shell < TI > < 5 section points > : SPOS, (fraction = 1.0)",122.285
C:/Users/srbb21/AppData/Local/Temp/rx18_gr30001521653382.841.odb,RELAX,Increment    105: Step Time =    1.000,SHELL-1,463,-8.40863,6.25,15.9133,ASSEMBLY_SHELL-1_ALLEL,TI,"shell < TI > < 5 section points > : SNEG, (fraction = -1.0)",125.283
C:/Users/srbb21/AppData/Local/Temp/rx18_gr30001521653382.841.odb,RELAX,Increment    105: Step Time =    1.000,SHELL-1,464,-8.40863,6.75,15.9133,ASSEMBLY_SHELL-1_ALLEL,TI,"shell < TI > < 5 section points > : SPOS, (fraction = 1.0)",124.368
C:/Users/srbb21/AppData/Local/Temp/rx18_gr30001521653382.841.odb,RELAX,Increment    105: Step Time =    1.000,SHELL-1,464,-8.40863,6.75,15.9133,ASSEMBLY_SHELL-1_ALLEL,TI,"shell < TI > < 5 section points > : SNEG, (fraction = -1.0)",121.137
C:/Users/srbb21/AppData/Local/Temp/rx18_gr30001521653382.841.odb,RELAX,Increment    105: Step Time =    1.000,SHELL-1,465,-8.40863,7.25,15.9133,ASSEMBLY_SHELL-1_ALLEL,TI,"shell < TI > < 5 section points > : SPOS, (fraction = 1.0)",127.593
C:/Users/srbb21/AppData/Local/Temp/rx18_gr30001521653382.841.odb,RELAX,Increment    105: Step Time =    1.000,SHELL-1,465,-8.40863,7.25,15.9133,ASSEMBLY_SHELL-1_ALLEL,TI,"shell < TI > < 5 section points > : SNEG, (fraction = -1.0)",115.838
C:/Users/srbb21/AppData/Local/Temp/rx18_gr30001521653382.841.odb,RELAX,Increment    105: Step Time =    1.000,SHELL-1,466,-8.40863,7.75,15.9133,ASSEMBLY_SHELL-1_ALLEL,TI,"shell < TI > < 5 section points > : SNEG, (fraction = -1.0)",109.365
C:/Users/srbb21/AppData/Local/Temp/rx18_gr30001521653382.841.odb,RELAX,Increment    105: Step Time =    1.000,SHELL-1,466,-8.40863,7.75,15.9133,ASSEMBLY_SHELL-1_ALLEL,TI,"shell < TI > < 5 section points > : SPOS, (fraction = 1.0)",132.041
C:/Users/srbb21/AppData/Local/Temp/rx18_gr30001521653382.841.odb,RELAX,Increment    105: Step Time =    1.000,SHELL-1,467,-8.40863,8.25,15.9133,ASSEMBLY_SHELL-1_ALLEL,TI,"shell < TI > < 5 section points > : SPOS, (fraction = 1.0)",137.649
C:/Users/srbb21/AppData/Local/Temp/rx18_gr30001521653382.841.odb,RELAX,Increment    105: Step Time =    1.000,SHELL-1,467,-8.40863,8.25,15.9133,ASSEMBLY_SHELL-1_ALLEL,TI,"shell < TI > < 5 section points > : SNEG, (fraction = -1.0)",101.872
C:/Users/srbb21/AppData/Local/Temp/rx18_gr30001521653382.841.odb,RELAX,Increment    105: Step Time =    1.000,SHELL-1,468,-8.40863,8.75,15.9133,ASSEMBLY_SHELL-1_ALLEL,TI,"shell < TI > < 5 section points > : SPOS, (fraction = 1.0)",144.153
C:/Users/srbb21/AppData/Local/Temp/rx18_gr30001521653382.841.odb,RELAX,Increment    105: Step Time =    1.000,SHELL-1,468,-8.40863,8.75,15.9133,ASSEMBLY_SHELL-1_ALLEL,TI,"shell < TI > < 5 section points > : SNEG, (fraction = -1.0)",93.7189
C:/Users/srbb21/AppData/Local/Temp/rx18_gr30001521653382.841.odb,RELAX,Increment    105: Step Time =    1.000,SHELL-1,469,-7.9634,-8.75,16.1407,ASSEMBLY_SHELL-1_ALLEL,TI,"shell < TI > < 5 section points > : SPOS, (fraction = 1.0)",143.4
C:/Users/srbb21/AppData/Local/Temp/rx18_gr30001521653382.841.odb,RELAX,Increment    105: Step Time =    1.000,SHELL-1,469,-7.9634,-8.75,16.1407,ASSEMBLY_SHELL-1_ALLEL,TI,"shell < TI > < 5 section points > : SNEG, (fraction = -1.0)",96.288
C:/Users/srbb21/AppData/Local/Temp/rx18_gr30001521653382.841.odb,RELAX,Increment    105: Step Time =    1.000,SHELL-1,470,-7.9634,-8.25,16.1407,ASSEMBLY_SHELL-1_ALLEL,TI,"shell < TI > < 5 section points > : SNEG, (fraction = -1.0)",103.402
C:/Users/srbb21/AppData/Local/Temp/rx18_gr30001521653382.841.odb,RELAX,Increment    105: Step Time =    1.000,SHELL-1,470,-7.9634,-8.25,16.1407,ASSEMBLY_SHELL-1_ALLEL,TI,"shell < TI > < 5 section points > : SPOS, (fraction = 1.0)",137.772
C:/Users/srbb21/AppData/Local/Temp/rx18_gr30001521653382.841.odb,RELAX,Increment    105: Step Time =    1.000,SHELL-1,471,-7.9634,-7.75,16.1407,ASSEMBLY_SHELL-1_ALLEL,TI,"shell < TI > < 5 section points > : SPOS, (fraction = 1.0)",132.755
C:/Users/srbb21/AppData/Local/Temp/rx18_gr30001521653382.841.odb,RELAX,Increment    105: Step Time =    1.000,SHELL-1,471,-7.9634,-7.75,16.1407,ASSEMBLY_SHELL-1_ALLEL,TI,"shell < TI > < 5 section points > : SNEG, (fraction = -1.0)",110.073
C:/Users/srbb21/AppData/Local/Temp/rx18_gr30001521653382.841.odb,RELAX,Increment    105: Step Time =    1.000,SHELL-1,472,-7.9634,-7.25,16.1407,ASSEMBLY_SHELL-1_ALLEL,TI,"shell < TI > < 5 section points > : SPOS, (fraction = 1.0)",128.588
C:/Users/srbb21/AppData/Local/Temp/rx18_gr30001521653382.841.odb,RELAX,Increment    105: Step Time =    1.000,SHELL-1,472,-7.9634,-7.25,16.1407,ASSEMBLY_SHELL-1_ALLEL,TI,"shell < TI > < 5 section points > : SNEG, (fraction = -1.0)",115.97
C:/Users/srbb21/AppData/Local/Temp/rx18_gr30001521653382.841.odb,RELAX,Increment    105: Step Time =    1.000,SHELL-1,473,-7.9634,-6.75,16.1407,ASSEMBLY_SHELL-1_ALLEL,TI,"shell < TI > < 5 section points > : SPOS, (fraction = 1.0)",125.375
C:/Users/srbb21/AppData/Local/Temp/rx18_gr30001521653382.841.odb,RELAX,Increment    105: Step Time =    1.000,SHELL-1,473,-7.9634,-6.75,16.1407,ASSEMBLY_SHELL-1_ALLEL,TI,"shell < TI > < 5 section points > : SNEG, (fraction = -1.0)",120.915
C:/Users/srbb21/AppData/Local/Temp/rx18_gr30001521653382.841.odb,RELAX,Increment    105: Step Time =    1.000,SHELL-1,474,-7.9634,-6.25,16.1407,ASSEMBLY_SHELL-1_ALLEL,TI,"shell < TI > < 5 section points > : SNEG, (fraction = -1.0)",124.884
C:/Users/srbb21/AppData/Local/Temp/rx18_gr30001521653382.841.odb,RELAX,Increment    105: Step Time =    1.000,SHELL-1,474,-7.9634,-6.25,16.1407,ASSEMBLY_SHELL-1_ALLEL,TI,"shell < TI > < 5 section points > : SPOS, (fraction = 1.0)",123.094
C:/Users/srbb21/AppData/Local/Temp/rx18_gr30001521653382.841.odb,RELAX,Increment    105: Step Time =    1.000,SHELL-1,475,-7.9634,-5.75,16.1407,ASSEMBLY_SHELL-1_ALLEL,TI,"shell < TI > < 5 section points > : SPOS, (fraction = 1.0)",121.654
C:/Users/srbb21/AppData/Local/Temp/rx18_gr30001521653382.841.odb,RELAX,Increment    105: Step Time =    1.000,SHELL-1,475,-7.9634,-5.75,16.1407,ASSEMBLY_SHELL-1_ALLEL,TI,"shell < TI > < 5 section points > : SNEG, (fraction = -1.0)",127.928
C:/Users/srbb21/AppData/Local/Temp/rx18_gr30001521653382.841.odb,RELAX,Increment    105: Step Time =    1.000,SHELL-1,476,-7.9634,-5.25,16.1407,ASSEMBLY_SHELL-1_ALLEL,TI,"shell < TI > < 5 section points > : SPOS, (fraction = 1.0)",120.918
C:/Users/srbb21/AppData/Local/Temp/rx18_gr30001521653382.841.odb,RELAX,Increment    105: Step Time =    1.000,SHELL-1,476,-7.9634,-5.25,16.1407,ASSEMBLY_SHELL-1_ALLEL,TI,"shell < TI > < 5 section points > : SNEG, (fraction = -1.0)",130.16
C:/Users/srbb21/AppData/Local/Temp/rx18_gr30001521653382.841.odb,RELAX,Increment    105: Step Time =    1.000,SHELL-1,477,-7.9634,-4.75,16.1407,ASSEMBLY_SHELL-1_ALLEL,TI,"shell < TI > < 5 section points > : SPOS, (fraction = 1.0)",120.738
C:/Users/srbb21/AppData/Local/Temp/rx18_gr30001521653382.841.odb,RELAX,Increment    105: Step Time =    1.000,SHELL-1,477,-7.9634,-4.75,16.1407,ASSEMBLY_SHELL-1_ALLEL,TI,"shell < TI > < 5 section points > : SNEG, (fraction = -1.0)",131.713
C:/Users/srbb21/AppData/Local/Temp/rx18_gr30001521653382.841.odb,RELAX,Increment    105: Step Time =    1.000,SHELL-1,478,-7.9634,-4.25,16.1407,ASSEMBLY_SHELL-1_ALLEL,TI,"shell < TI > < 5 section points > : SPOS, (fraction = 1.0)",120.971
C:/Users/srbb21/AppData/Local/Temp/rx18_gr30001521653382.841.odb,RELAX,Increment    105: Step Time =    1.000,SHELL-1,478,-7.9634,-4.25,16.1407,ASSEMBLY_SHELL-1_ALLEL,TI,"shell < TI > < 5 section points > : SNEG, (fraction = -1.0)",132.727
C:/Users/srbb21/AppData/Local/Temp/rx18_gr30001521653382.841.odb,RELAX,Increment    105: Step Time =    1.000,SHELL-1,479,-7.9634,-3.75,16.1407,ASSEMBLY_SHELL-1_ALLEL,TI,"shell < TI > < 5 section points > : SNEG, (fraction = -1.0)",133.334
C:/Users/srbb21/AppData/Local/Temp/rx18_gr30001521653382.841.odb,RELAX,Increment    105: Step Time =    1.000,SHELL-1,479,-7.9634,-3.75,16.1407,ASSEMBLY_SHELL-1_ALLEL,TI,"shell < TI > < 5 section points > : SPOS, (fraction = 1.0)",121.486
C:/Users/srbb21/AppData/Local/Temp/rx18_gr30001521653382.841.odb,RELAX,Increment    105: Step Time =    1.000,SHELL-1,480,-7.9634,-3.25,16.1407,ASSEMBLY_SHELL-1_ALLEL,TI,"shell < TI > < 5 section points > : SPOS, (fraction = 1.0)",122.168
C:/Users/srbb21/AppData/Local/Temp/rx18_gr30001521653382.841.odb,RELAX,Increment    105: Step Time =    1.000,SHELL-1,480,-7.9634,-3.25,16.1407,ASSEMBLY_SHELL-1_ALLEL,TI,"shell < TI > < 5 section points > : SNEG, (fraction = -1.0)",133.649
C:/Users/srbb21/AppData/Local/Temp/rx18_gr30001521653382.841.odb,RELAX,Increment    105: Step Time =    1.000,SHELL-1,481,-7.9634,-2.75,16.1407,ASSEMBLY_SHELL-1_ALLEL,TI,"shell < TI > < 5 section points > : SPOS, (fraction = 1.0)",122.92
C:/Users/srbb21/AppData/Local/Temp/rx18_gr30001521653382.841.odb,RELAX,Increment    105: Step Time =    1.000,SHELL-1,481,-7.9634,-2.75,16.1407,ASSEMBLY_SHELL-1_ALLEL,TI,"shell < TI > < 5 section points > : SNEG, (fraction = -1.0)",133.769
C:/Users/srbb21/AppData/Local/Temp/rx18_gr30001521653382.841.odb,RELAX,Increment    105: Step Time =    1.000,SHELL-1,482,-7.9634,-2.25,16.1407,ASSEMBLY_SHELL-1_ALLEL,TI,"shell < TI > < 5 section points > : SPOS, (fraction = 1.0)",123.664
C:/Users/srbb21/AppData/Local/Temp/rx18_gr30001521653382.841.odb,RELAX,Increment    105: Step Time =    1.000,SHELL-1,482,-7.9634,-2.25,16.1407,ASSEMBLY_SHELL-1_ALLEL,TI,"shell < TI > < 5 section points > : SNEG, (fraction = -1.0)",133.769
C:/Users/srbb21/AppData/Local/Temp/rx18_gr30001521653382.841.odb,RELAX,Increment    105: Step Time =    1.000,SHELL-1,483,-7.9634,-1.75,16.1407,ASSEMBLY_SHELL-1_ALLEL,TI,"shell < TI > < 5 section points > : SNEG, (fraction = -1.0)",133.709
C:/Users/srbb21/AppData/Local/Temp/rx18_gr30001521653382.841.odb,RELAX,Increment    105: Step Time =    1.000,SHELL-1,483,-7.9634,-1.75,16.1407,ASSEMBLY_SHELL-1_ALLEL,TI,"shell < TI > < 5 section points > : SPOS, (fraction = 1.0)",124.332
C:/Users/srbb21/AppData/Local/Temp/rx18_gr30001521653382.841.odb,RELAX,Increment    105: Step Time =    1.000,SHELL-1,484,-7.9634,-1.25,16.1407,ASSEMBLY_SHELL-1_ALLEL,TI,"shell < TI > < 5 section points > : SPOS, (fraction = 1.0)",124.876
C:/Users/srbb21/AppData/Local/Temp/rx18_gr30001521653382.841.odb,RELAX,Increment    105: Step Time =    1.000,SHELL-1,484,-7.9634,-1.25,16.1407,ASSEMBLY_SHELL-1_ALLEL,TI,"shell < TI > < 5 section points > : SNEG, (fraction = -1.0)",133.631
C:/Users/srbb21/AppData/Local/Temp/rx18_gr30001521653382.841.odb,RELAX,Increment    105: Step Time =    1.000,SHELL-1,485,-7.9634,-0.75,16.1407,ASSEMBLY_SHELL-1_ALLEL,TI,"shell < TI > < 5 section points > : SPOS, (fraction = 1.0)",125.258
C:/Users/srbb21/AppData/Local/Temp/rx18_gr30001521653382.841.odb,RELAX,Increment    105: Step Time =    1.000,SHELL-1,485,-7.9634,-0.75,16.1407,ASSEMBLY_SHELL-1_ALLEL,TI,"shell < TI > < 5 section points > : SNEG, (fraction = -1.0)",133.563
C:/Users/srbb21/AppData/Local/Temp/rx18_gr30001521653382.841.odb,RELAX,Increment    105: Step Time =    1.000,SHELL-1,486,-7.9634,-0.25,16.1407,ASSEMBLY_SHELL-1_ALLEL,TI,"shell < TI > < 5 section points > : SPOS, (fraction = 1.0)",125.456
C:/Users/srbb21/AppData/Local/Temp/rx18_gr30001521653382.841.odb,RELAX,Increment    105: Step Time =    1.000,SHELL-1,486,-7.9634,-0.25,16.1407,ASSEMBLY_SHELL-1_ALLEL,TI,"shell < TI > < 5 section points > : SNEG, (fraction = -1.0)",133.525
C:/Users/srbb21/AppData/Local/Temp/rx18_gr30001521653382.841.odb,RELAX,Increment    105: Step Time =    1.000,SHELL-1,487,-7.9634,0.25,16.1407,ASSEMBLY_SHELL-1_ALLEL,TI,"shell < TI > < 5 section points > : SNEG, (fraction = -1.0)",133.525
C:/Users/srbb21/AppData/Local/Temp/rx18_gr30001521653382.841.odb,RELAX,Increment    105: Step Time =    1.000,SHELL-1,487,-7.9634,0.25,16.1407,ASSEMBLY_SHELL-1_ALLEL,TI,"shell < TI > < 5 section points > : SPOS, (fraction = 1.0)",125.456
C:/Users/srbb21/AppData/Local/Temp/rx18_gr30001521653382.841.odb,RELAX,Increment    105: Step Time =    1.000,SHELL-1,488,-7.9634,0.75,16.1407,ASSEMBLY_SHELL-1_ALLEL,TI,"shell < TI > < 5 section points > : SPOS, (fraction = 1.0)",125.258
C:/Users/srbb21/AppData/Local/Temp/rx18_gr30001521653382.841.odb,RELAX,Increment    105: Step Time =    1.000,SHELL-1,488,-7.9634,0.75,16.1407,ASSEMBLY_SHELL-1_ALLEL,TI,"shell < TI > < 5 section points > : SNEG, (fraction = -1.0)",133.563
C:/Users/srbb21/AppData/Local/Temp/rx18_gr30001521653382.841.odb,RELAX,Increment    105: Step Time =    1.000,SHELL-1,489,-7.9634,1.25,16.1407,ASSEMBLY_SHELL-1_ALLEL,TI,"shell < TI > < 5 section points > : SPOS, (fraction = 1.0)",124.876
C:/Users/srbb21/AppData/Local/Temp/rx18_gr30001521653382.841.odb,RELAX,Increment    105: Step Time =    1.000,SHELL-1,489,-7.9634,1.25,16.1407,ASSEMBLY_SHELL-1_ALLEL,TI,"shell < TI > < 5 section points > : SNEG, (fraction = -1.0)",133.631
C:/Users/srbb21/AppData/Local/Temp/rx18_gr30001521653382.841.odb,RELAX,Increment    105: Step Time =    1.000,SHELL-1,490,-7.9634,1.75,16.1407,ASSEMBLY_SHELL-1_ALLEL,TI,"shell < TI > < 5 section points > : SPOS, (fraction = 1.0)",124.332
C:/Users/srbb21/AppData/Local/Temp/rx18_gr30001521653382.841.odb,RELAX,Increment    105: Step Time =    1.000,SHELL-1,490,-7.9634,1.75,16.1407,ASSEMBLY_SHELL-1_ALLEL,TI,"shell < TI > < 5 section points > : SNEG, (fraction = -1.0)",133.709
C:/Users/srbb21/AppData/Local/Temp/rx18_gr30001521653382.841.odb,RELAX,Increment    105: Step Time =    1.000,SHELL-1,491,-7.9634,2.25,16.1407,ASSEMBLY_SHELL-1_ALLEL,TI,"shell < TI > < 5 section points > : SNEG, (fraction = -1.0)",133.769
C:/Users/srbb21/AppData/Local/Temp/rx18_gr30001521653382.841.odb,RELAX,Increment    105: Step Time =    1.000,SHELL-1,491,-7.9634,2.25,16.1407,ASSEMBLY_SHELL-1_ALLEL,TI,"shell < TI > < 5 section points > : SPOS, (fraction = 1.0)",123.664
C:/Users/srbb21/AppData/Local/Temp/rx18_gr30001521653382.841.odb,RELAX,Increment    105: Step Time =    1.000,SHELL-1,492,-7.9634,2.75,16.1407,ASSEMBLY_SHELL-1_ALLEL,TI,"shell < TI > < 5 section points > : SPOS, (fraction = 1.0)",122.92
C:/Users/srbb21/AppData/Local/Temp/rx18_gr30001521653382.841.odb,RELAX,Increment    105: Step Time =    1.000,SHELL-1,492,-7.9634,2.75,16.1407,ASSEMBLY_SHELL-1_ALLEL,TI,"shell < TI > < 5 section points > : SNEG, (fraction = -1.0)",133.769
C:/Users/srbb21/AppData/Local/Temp/rx18_gr30001521653382.841.odb,RELAX,Increment    105: Step Time =    1.000,SHELL-1,493,-7.9634,3.25,16.1407,ASSEMBLY_SHELL-1_ALLEL,TI,"shell < TI > < 5 section points > : SPOS, (fraction = 1.0)",122.168
C:/Users/srbb21/AppData/Local/Temp/rx18_gr30001521653382.841.odb,RELAX,Increment    105: Step Time =    1.000,SHELL-1,493,-7.9634,3.25,16.1407,ASSEMBLY_SHELL-1_ALLEL,TI,"shell < TI > < 5 section points > : SNEG, (fraction = -1.0)",133.649
C:/Users/srbb21/AppData/Local/Temp/rx18_gr30001521653382.841.odb,RELAX,Increment    105: Step Time =    1.000,SHELL-1,494,-7.9634,3.75,16.1407,ASSEMBLY_SHELL-1_ALLEL,TI,"shell < TI > < 5 section points > : SPOS, (fraction = 1.0)",121.486
C:/Users/srbb21/AppData/Local/Temp/rx18_gr30001521653382.841.odb,RELAX,Increment    105: Step Time =    1.000,SHELL-1,494,-7.9634,3.75,16.1407,ASSEMBLY_SHELL-1_ALLEL,TI,"shell < TI > < 5 section points > : SNEG, (fraction = -1.0)",133.334
C:/Users/srbb21/AppData/Local/Temp/rx18_gr30001521653382.841.odb,RELAX,Increment    105: Step Time =    1.000,SHELL-1,495,-7.9634,4.25,16.1407,ASSEMBLY_SHELL-1_ALLEL,TI,"shell < TI > < 5 section points > : SPOS, (fraction = 1.0)",120.971
C:/Users/srbb21/AppData/Local/Temp/rx18_gr30001521653382.841.odb,RELAX,Increment    105: Step Time =    1.000,SHELL-1,495,-7.9634,4.25,16.1407,ASSEMBLY_SHELL-1_ALLEL,TI,"shell < TI > < 5 section points > : SNEG, (fraction = -1.0)",132.727
C:/Users/srbb21/AppData/Local/Temp/rx18_gr30001521653382.841.odb,RELAX,Increment    105: Step Time =    1.000,SHELL-1,496,-7.9634,4.75,16.1407,ASSEMBLY_SHELL-1_ALLEL,TI,"shell < TI > < 5 section points > : SNEG, (fraction = -1.0)",131.713
C:/Users/srbb21/AppData/Local/Temp/rx18_gr30001521653382.841.odb,RELAX,Increment    105: Step Time =    1.000,SHELL-1,496,-7.9634,4.75,16.1407,ASSEMBLY_SHELL-1_ALLEL,TI,"shell < TI > < 5 section points > : SPOS, (fraction = 1.0)",120.738
C:/Users/srbb21/AppData/Local/Temp/rx18_gr30001521653382.841.odb,RELAX,Increment    105: Step Time =    1.000,SHELL-1,497,-7.9634,5.25,16.1407,ASSEMBLY_SHELL-1_ALLEL,TI,"shell < TI > < 5 section points > : SPOS, (fraction = 1.0)",120.918
C:/Users/srbb21/AppData/Local/Temp/rx18_gr30001521653382.841.odb,RELAX,Increment    105: Step Time =    1.000,SHELL-1,497,-7.9634,5.25,16.1407,ASSEMBLY_SHELL-1_ALLEL,TI,"shell < TI > < 5 section points > : SNEG, (fraction = -1.0)",130.16
C:/Users/srbb21/AppData/Local/Temp/rx18_gr30001521653382.841.odb,RELAX,Increment    105: Step Time =    1.000,SHELL-1,498,-7.9634,5.75,16.1407,ASSEMBLY_SHELL-1_ALLEL,TI,"shell < TI > < 5 section points > : SPOS, (fraction = 1.0)",121.654
C:/Users/srbb21/AppData/Local/Temp/rx18_gr30001521653382.841.odb,RELAX,Increment    105: Step Time =    1.000,SHELL-1,498,-7.9634,5.75,16.1407,ASSEMBLY_SHELL-1_ALLEL,TI,"shell < TI > < 5 section points > : SNEG, (fraction = -1.0)",127.928
C:/Users/srbb21/AppData/Local/Temp/rx18_gr30001521653382.841.odb,RELAX,Increment    105: Step Time =    1.000,SHELL-1,499,-7.9634,6.25,16.1407,ASSEMBLY_SHELL-1_ALLEL,TI,"shell < TI > < 5 section points > : SPOS, (fraction = 1.0)",123.094
C:/Users/srbb21/AppData/Local/Temp/rx18_gr30001521653382.841.odb,RELAX,Increment    105: Step Time =    1.000,SHELL-1,499,-7.9634,6.25,16.1407,ASSEMBLY_SHELL-1_ALLEL,TI,"shell < TI > < 5 section points > : SNEG, (fraction = -1.0)",124.884
C:/Users/srbb21/AppData/Local/Temp/rx18_gr30001521653382.841.odb,RELAX,Increment    105: Step Time =    1.000,SHELL-1,500,-7.9634,6.75,16.1407,ASSEMBLY_SHELL-1_ALLEL,TI,"shell < TI > < 5 section points > : SNEG, (fraction = -1.0)",120.915
C:/Users/srbb21/AppData/Local/Temp/rx18_gr30001521653382.841.odb,RELAX,Increment    105: Step Time =    1.000,SHELL-1,500,-7.9634,6.75,16.1407,ASSEMBLY_SHELL-1_ALLEL,TI,"shell < TI > < 5 section points > : SPOS, (fraction = 1.0)",125.375
C:/Users/srbb21/AppData/Local/Temp/rx18_gr30001521653382.841.odb,RELAX,Increment    105: Step Time =    1.000,SHELL-1,501,-7.9634,7.25,16.1407,ASSEMBLY_SHELL-1_ALLEL,TI,"shell < TI > < 5 section points > : SPOS, (fraction = 1.0)",128.588
C:/Users/srbb21/AppData/Local/Temp/rx18_gr30001521653382.841.odb,RELAX,Increment    105: Step Time =    1.000,SHELL-1,501,-7.9634,7.25,16.1407,ASSEMBLY_SHELL-1_ALLEL,TI,"shell < TI > < 5 section points > : SNEG, (fraction = -1.0)",115.97
C:/Users/srbb21/AppData/Local/Temp/rx18_gr30001521653382.841.odb,RELAX,Increment    105: Step Time =    1.000,SHELL-1,502,-7.9634,7.75,16.1407,ASSEMBLY_SHELL-1_ALLEL,TI,"shell < TI > < 5 section points > : SPOS, (fraction = 1.0)",132.755
C:/Users/srbb21/AppData/Local/Temp/rx18_gr30001521653382.841.odb,RELAX,Increment    105: Step Time =    1.000,SHELL-1,502,-7.9634,7.75,16.1407,ASSEMBLY_SHELL-1_ALLEL,TI,"shell < TI > < 5 section points > : SNEG, (fraction = -1.0)",110.073
C:/Users/srbb21/AppData/Local/Temp/rx18_gr30001521653382.841.odb,RELAX,Increment    105: Step Time =    1.000,SHELL-1,503,-7.9634,8.25,16.1407,ASSEMBLY_SHELL-1_ALLEL,TI,"shell < TI > < 5 section points > : SPOS, (fraction = 1.0)",137.772
C:/Users/srbb21/AppData/Local/Temp/rx18_gr30001521653382.841.odb,RELAX,Increment    105: Step Time =    1.000,SHELL-1,503,-7.9634,8.25,16.1407,ASSEMBLY_SHELL-1_ALLEL,TI,"shell < TI > < 5 section points > : SNEG, (fraction = -1.0)",103.402
C:/Users/srbb21/AppData/Local/Temp/rx18_gr30001521653382.841.odb,RELAX,Increment    105: Step Time =    1.000,SHELL-1,504,-7.9634,8.75,16.1407,ASSEMBLY_SHELL-1_ALLEL,TI,"shell < TI > < 5 section points > : SNEG, (fraction = -1.0)",96.288
C:/Users/srbb21/AppData/Local/Temp/rx18_gr30001521653382.841.odb,RELAX,Increment    105: Step Time =    1.000,SHELL-1,504,-7.9634,8.75,16.1407,ASSEMBLY_SHELL-1_ALLEL,TI,"shell < TI > < 5 section points > : SPOS, (fraction = 1.0)",143.4
C:/Users/srbb21/AppData/Local/Temp/rx18_gr30001521653382.841.odb,RELAX,Increment    105: Step Time =    1.000,SHELL-1,505,-7.51204,-8.75,16.3556,ASSEMBLY_SHELL-1_ALLEL,TI,"shell < TI > < 5 section points > : SPOS, (fraction = 1.0)",142.632
C:/Users/srbb21/AppData/Local/Temp/rx18_gr30001521653382.841.odb,RELAX,Increment    105: Step Time =    1.000,SHELL-1,505,-7.51204,-8.75,16.3556,ASSEMBLY_SHELL-1_ALLEL,TI,"shell < TI > < 5 section points > : SNEG, (fraction = -1.0)",98.3277
C:/Users/srbb21/AppData/Local/Temp/rx18_gr30001521653382.841.odb,RELAX,Increment    105: Step Time =    1.000,SHELL-1,506,-7.51204,-8.25,16.3556,ASSEMBLY_SHELL-1_ALLEL,TI,"shell < TI > < 5 section points > : SPOS, (fraction = 1.0)",137.684
C:/Users/srbb21/AppData/Local/Temp/rx18_gr30001521653382.841.odb,RELAX,Increment    105: Step Time =    1.000,SHELL-1,506,-7.51204,-8.25,16.3556,ASSEMBLY_SHELL-1_ALLEL,TI,"shell < TI > < 5 section points > : SNEG, (fraction = -1.0)",104.604
C:/Users/srbb21/AppData/Local/Temp/rx18_gr30001521653382.841.odb,RELAX,Increment    105: Step Time =    1.000,SHELL-1,507,-7.51204,-7.75,16.3556,ASSEMBLY_SHELL-1_ALLEL,TI,"shell < TI > < 5 section points > : SPOS, (fraction = 1.0)",133.164
C:/Users/srbb21/AppData/Local/Temp/rx18_gr30001521653382.841.odb,RELAX,Increment    105: Step Time =    1.000,SHELL-1,507,-7.51204,-7.75,16.3556,ASSEMBLY_SHELL-1_ALLEL,TI,"shell < TI > < 5 section points > : SNEG, (fraction = -1.0)",110.568
C:/Users/srbb21/AppData/Local/Temp/rx18_gr30001521653382.841.odb,RELAX,Increment    105: Step Time =    1.000,SHELL-1,508,-7.51204,-7.25,16.3556,ASSEMBLY_SHELL-1_ALLEL,TI,"shell < TI > < 5 section points > : SNEG, (fraction = -1.0)",115.928
C:/Users/srbb21/AppData/Local/Temp/rx18_gr30001521653382.841.odb,RELAX,Increment    105: Step Time =    1.000,SHELL-1,508,-7.51204,-7.25,16.3556,ASSEMBLY_SHELL-1_ALLEL,TI,"shell < TI > < 5 section points > : SPOS, (fraction = 1.0)",129.281
C:/Users/srbb21/AppData/Local/Temp/rx18_gr30001521653382.841.odb,RELAX,Increment    105: Step Time =    1.000,SHELL-1,509,-7.51204,-6.75,16.3556,ASSEMBLY_SHELL-1_ALLEL,TI,"shell < TI > < 5 section points > : SPOS, (fraction = 1.0)",126.14
C:/Users/srbb21/AppData/Local/Temp/rx18_gr30001521653382.841.odb,RELAX,Increment    105: Step Time =    1.000,SHELL-1,509,-7.51204,-6.75,16.3556,ASSEMBLY_SHELL-1_ALLEL,TI,"shell < TI > < 5 section points > : SNEG, (fraction = -1.0)",120.516
C:/Users/srbb21/AppData/Local/Temp/rx18_gr30001521653382.841.odb,RELAX,Increment    105: Step Time =    1.000,SHELL-1,510,-7.51204,-6.25,16.3556,ASSEMBLY_SHELL-1_ALLEL,TI,"shell < TI > < 5 section points > : SPOS, (fraction = 1.0)",123.758
C:/Users/srbb21/AppData/Local/Temp/rx18_gr30001521653382.841.odb,RELAX,Increment    105: Step Time =    1.000,SHELL-1,510,-7.51204,-6.25,16.3556,ASSEMBLY_SHELL-1_ALLEL,TI,"shell < TI > < 5 section points > : SNEG, (fraction = -1.0)",124.275
C:/Users/srbb21/AppData/Local/Temp/rx18_gr30001521653382.841.odb,RELAX,Increment    105: Step Time =    1.000,SHELL-1,511,-7.51204,-5.75,16.3556,ASSEMBLY_SHELL-1_ALLEL,TI,"shell < TI > < 5 section points > : SPOS, (fraction = 1.0)",122.089
C:/Users/srbb21/AppData/Local/Temp/rx18_gr30001521653382.841.odb,RELAX,Increment    105: Step Time =    1.000,SHELL-1,511,-7.51204,-5.75,16.3556,ASSEMBLY_SHELL-1_ALLEL,TI,"shell < TI > < 5 section points > : SNEG, (fraction = -1.0)",127.225
C:/Users/srbb21/AppData/Local/Temp/rx18_gr30001521653382.841.odb,RELAX,Increment    105: Step Time =    1.000,SHELL-1,512,-7.51204,-5.25,16.3556,ASSEMBLY_SHELL-1_ALLEL,TI,"shell < TI > < 5 section points > : SPOS, (fraction = 1.0)",121.045
C:/Users/srbb21/AppData/Local/Temp/rx18_gr30001521653382.841.odb,RELAX,Increment    105: Step Time =    1.000,SHELL-1,512,-7.51204,-5.25,16.3556,ASSEMBLY_SHELL-1_ALLEL,TI,"shell < TI > < 5 section points > : SNEG, (fraction = -1.0)",129.441
C:/Users/srbb21/AppData/Local/Temp/rx18_gr30001521653382.841.odb,RELAX,Increment    105: Step Time =    1.000,SHELL-1,513,-7.51204,-4.75,16.3556,ASSEMBLY_SHELL-1_ALLEL,TI,"shell < TI > < 5 section points > : SNEG, (fraction = -1.0)",131.024
C:/Users/srbb21/AppData/Local/Temp/rx18_gr30001521653382.841.odb,RELAX,Increment    105: Step Time =    1.000,SHELL-1,513,-7.51204,-4.75,16.3556,ASSEMBLY_SHELL-1_ALLEL,TI,"shell < TI > < 5 section points > : SPOS, (fraction = 1.0)",120.52
C:/Users/srbb21/AppData/Local/Temp/rx18_gr30001521653382.841.odb,RELAX,Increment    105: Step Time =    1.000,SHELL-1,514,-7.51204,-4.25,16.3556,ASSEMBLY_SHELL-1_ALLEL,TI,"shell < TI > < 5 section points > : SPOS, (fraction = 1.0)",120.404
C:/Users/srbb21/AppData/Local/Temp/rx18_gr30001521653382.841.odb,RELAX,Increment    105: Step Time =    1.000,SHELL-1,514,-7.51204,-4.25,16.3556,ASSEMBLY_SHELL-1_ALLEL,TI,"shell < TI > < 5 section points > : SNEG, (fraction = -1.0)",132.091
C:/Users/srbb21/AppData/Local/Temp/rx18_gr30001521653382.841.odb,RELAX,Increment    105: Step Time =    1.000,SHELL-1,515,-7.51204,-3.75,16.3556,ASSEMBLY_SHELL-1_ALLEL,TI,"shell < TI > < 5 section points > : SPOS, (fraction = 1.0)",120.589
C:/Users/srbb21/AppData/Local/Temp/rx18_gr30001521653382.841.odb,RELAX,Increment    105: Step Time =    1.000,SHELL-1,515,-7.51204,-3.75,16.3556,ASSEMBLY_SHELL-1_ALLEL,TI,"shell < TI > < 5 section points > : SNEG, (fraction = -1.0)",132.755
C:/Users/srbb21/AppData/Local/Temp/rx18_gr30001521653382.841.odb,RELAX,Increment    105: Step Time =    1.000,SHELL-1,516,-7.51204,-3.25,16.3556,ASSEMBLY_SHELL-1_ALLEL,TI,"shell < TI > < 5 section points > : SPOS, (fraction = 1.0)",120.974
C:/Users/srbb21/AppData/Local/Temp/rx18_gr30001521653382.841.odb,RELAX,Increment    105: Step Time =    1.000,SHELL-1,516,-7.51204,-3.25,16.3556,ASSEMBLY_SHELL-1_ALLEL,TI,"shell < TI > < 5 section points > : SNEG, (fraction = -1.0)",133.122
C:/Users/srbb21/AppData/Local/Temp/rx18_gr30001521653382.841.odb,RELAX,Increment    105: Step Time =    1.000,SHELL-1,517,-7.51204,-2.75,16.3556,ASSEMBLY_SHELL-1_ALLEL,TI,"shell < TI > < 5 section points > : SNEG, (fraction = -1.0)",133.283
C:/Users/srbb21/AppData/Local/Temp/rx18_gr30001521653382.841.odb,RELAX,Increment    105: Step Time =    1.000,SHELL-1,517,-7.51204,-2.75,16.3556,ASSEMBLY_SHELL-1_ALLEL,TI,"shell < TI > < 5 section points > : SPOS, (fraction = 1.0)",121.471
C:/Users/srbb21/AppData/Local/Temp/rx18_gr30001521653382.841.odb,RELAX,Increment    105: Step Time =    1.000,SHELL-1,518,-7.51204,-2.25,16.3556,ASSEMBLY_SHELL-1_ALLEL,TI,"shell < TI > < 5 section points > : SPOS, (fraction = 1.0)",122.003
C:/Users/srbb21/AppData/Local/Temp/rx18_gr30001521653382.841.odb,RELAX,Increment    105: Step Time =    1.000,SHELL-1,518,-7.51204,-2.25,16.3556,ASSEMBLY_SHELL-1_ALLEL,TI,"shell < TI > < 5 section points > : SNEG, (fraction = -1.0)",133.315
C:/Users/srbb21/AppData/Local/Temp/rx18_gr30001521653382.841.odb,RELAX,Increment    105: Step Time =    1.000,SHELL-1,519,-7.51204,-1.75,16.3556,ASSEMBLY_SHELL-1_ALLEL,TI,"shell < TI > < 5 section points > : SPOS, (fraction = 1.0)",122.505
C:/Users/srbb21/AppData/Local/Temp/rx18_gr30001521653382.841.odb,RELAX,Increment    105: Step Time =    1.000,SHELL-1,519,-7.51204,-1.75,16.3556,ASSEMBLY_SHELL-1_ALLEL,TI,"shell < TI > < 5 section points > : SNEG, (fraction = -1.0)",133.276
C:/Users/srbb21/AppData/Local/Temp/rx18_gr30001521653382.841.odb,RELAX,Increment    105: Step Time =    1.000,SHELL-1,520,-7.51204,-1.25,16.3556,ASSEMBLY_SHELL-1_ALLEL,TI,"shell < TI > < 5 section points > : SPOS, (fraction = 1.0)",122.927
C:/Users/srbb21/AppData/Local/Temp/rx18_gr30001521653382.841.odb,RELAX,Increment    105: Step Time =    1.000,SHELL-1,520,-7.51204,-1.25,16.3556,ASSEMBLY_SHELL-1_ALLEL,TI,"shell < TI > < 5 section points > : SNEG, (fraction = -1.0)",133.211
C:/Users/srbb21/AppData/Local/Temp/rx18_gr30001521653382.841.odb,RELAX,Increment    105: Step Time =    1.000,SHELL-1,521,-7.51204,-0.75,16.3556,ASSEMBLY_SHELL-1_ALLEL,TI,"shell < TI > < 5 section points > : SNEG, (fraction = -1.0)",133.15
C:/Users/srbb21/AppData/Local/Temp/rx18_gr30001521653382.841.odb,RELAX,Increment    105: Step Time =    1.000,SHELL-1,521,-7.51204,-0.75,16.3556,ASSEMBLY_SHELL-1_ALLEL,TI,"shell < TI > < 5 section points > : SPOS, (fraction = 1.0)",123.229
C:/Users/srbb21/AppData/Local/Temp/rx18_gr30001521653382.841.odb,RELAX,Increment    105: Step Time =    1.000,SHELL-1,522,-7.51204,-0.25,16.3556,ASSEMBLY_SHELL-1_ALLEL,TI,"shell < TI > < 5 section points > : SPOS, (fraction = 1.0)",123.387
C:/Users/srbb21/AppData/Local/Temp/rx18_gr30001521653382.841.odb,RELAX,Increment    105: Step Time =    1.000,SHELL-1,522,-7.51204,-0.25,16.3556,ASSEMBLY_SHELL-1_ALLEL,TI,"shell < TI > < 5 section points > : SNEG, (fraction = -1.0)",133.115
C:/Users/srbb21/AppData/Local/Temp/rx18_gr30001521653382.841.odb,RELAX,Increment    105: Step Time =    1.000,SHELL-1,523,-7.51204,0.25,16.3556,ASSEMBLY_SHELL-1_ALLEL,TI,"shell < TI > < 5 section points > : SPOS, (fraction = 1.0)",123.387
C:/Users/srbb21/AppData/Local/Temp/rx18_gr30001521653382.841.odb,RELAX,Increment    105: Step Time =    1.000,SHELL-1,523,-7.51204,0.25,16.3556,ASSEMBLY_SHELL-1_ALLEL,TI,"shell < TI > < 5 section points > : SNEG, (fraction = -1.0)",133.115
C:/Users/srbb21/AppData/Local/Temp/rx18_gr30001521653382.841.odb,RELAX,Increment    105: Step Time =    1.000,SHELL-1,524,-7.51204,0.75,16.3556,ASSEMBLY_SHELL-1_ALLEL,TI,"shell < TI > < 5 section points > : SPOS, (fraction = 1.0)",123.229
C:/Users/srbb21/AppData/Local/Temp/rx18_gr30001521653382.841.odb,RELAX,Increment    105: Step Time =    1.000,SHELL-1,524,-7.51204,0.75,16.3556,ASSEMBLY_SHELL-1_ALLEL,TI,"shell < TI > < 5 section points > : SNEG, (fraction = -1.0)",133.15
C:/Users/srbb21/AppData/Local/Temp/rx18_gr30001521653382.841.odb,RELAX,Increment    105: Step Time =    1.000,SHELL-1,525,-7.51204,1.25,16.3556,ASSEMBLY_SHELL-1_ALLEL,TI,"shell < TI > < 5 section points > : SNEG, (fraction = -1.0)",133.211
C:/Users/srbb21/AppData/Local/Temp/rx18_gr30001521653382.841.odb,RELAX,Increment    105: Step Time =    1.000,SHELL-1,525,-7.51204,1.25,16.3556,ASSEMBLY_SHELL-1_ALLEL,TI,"shell < TI > < 5 section points > : SPOS, (fraction = 1.0)",122.927
C:/Users/srbb21/AppData/Local/Temp/rx18_gr30001521653382.841.odb,RELAX,Increment    105: Step Time =    1.000,SHELL-1,526,-7.51204,1.75,16.3556,ASSEMBLY_SHELL-1_ALLEL,TI,"shell < TI > < 5 section points > : SPOS, (fraction = 1.0)",122.505
C:/Users/srbb21/AppData/Local/Temp/rx18_gr30001521653382.841.odb,RELAX,Increment    105: Step Time =    1.000,SHELL-1,526,-7.51204,1.75,16.3556,ASSEMBLY_SHELL-1_ALLEL,TI,"shell < TI > < 5 section points > : SNEG, (fraction = -1.0)",133.276
C:/Users/srbb21/AppData/Local/Temp/rx18_gr30001521653382.841.odb,RELAX,Increment    105: Step Time =    1.000,SHELL-1,527,-7.51204,2.25,16.3556,ASSEMBLY_SHELL-1_ALLEL,TI,"shell < TI > < 5 section points > : SPOS, (fraction = 1.0)",122.003
C:/Users/srbb21/AppData/Local/Temp/rx18_gr30001521653382.841.odb,RELAX,Increment    105: Step Time =    1.000,SHELL-1,527,-7.51204,2.25,16.3556,ASSEMBLY_SHELL-1_ALLEL,TI,"shell < TI > < 5 section points > : SNEG, (fraction = -1.0)",133.315
C:/Users/srbb21/AppData/Local/Temp/rx18_gr30001521653382.841.odb,RELAX,Increment    105: Step Time =    1.000,SHELL-1,528,-7.51204,2.75,16.3556,ASSEMBLY_SHELL-1_ALLEL,TI,"shell < TI > < 5 section points > : SPOS, (fraction = 1.0)",121.471
C:/Users/srbb21/AppData/Local/Temp/rx18_gr30001521653382.841.odb,RELAX,Increment    105: Step Time =    1.000,SHELL-1,528,-7.51204,2.75,16.3556,ASSEMBLY_SHELL-1_ALLEL,TI,"shell < TI > < 5 section points > : SNEG, (fraction = -1.0)",133.283
C:/Users/srbb21/AppData/Local/Temp/rx18_gr30001521653382.841.odb,RELAX,Increment    105: Step Time =    1.000,SHELL-1,529,-7.51204,3.25,16.3556,ASSEMBLY_SHELL-1_ALLEL,TI,"shell < TI > < 5 section points > : SNEG, (fraction = -1.0)",133.122
C:/Users/srbb21/AppData/Local/Temp/rx18_gr30001521653382.841.odb,RELAX,Increment    105: Step Time =    1.000,SHELL-1,529,-7.51204,3.25,16.3556,ASSEMBLY_SHELL-1_ALLEL,TI,"shell < TI > < 5 section points > : SPOS, (fraction = 1.0)",120.974
C:/Users/srbb21/AppData/Local/Temp/rx18_gr30001521653382.841.odb,RELAX,Increment    105: Step Time =    1.000,SHELL-1,530,-7.51204,3.75,16.3556,ASSEMBLY_SHELL-1_ALLEL,TI,"shell < TI > < 5 section points > : SPOS, (fraction = 1.0)",120.589
C:/Users/srbb21/AppData/Local/Temp/rx18_gr30001521653382.841.odb,RELAX,Increment    105: Step Time =    1.000,SHELL-1,530,-7.51204,3.75,16.3556,ASSEMBLY_SHELL-1_ALLEL,TI,"shell < TI > < 5 section points > : SNEG, (fraction = -1.0)",132.755
C:/Users/srbb21/AppData/Local/Temp/rx18_gr30001521653382.841.odb,RELAX,Increment    105: Step Time =    1.000,SHELL-1,531,-7.51204,4.25,16.3556,ASSEMBLY_SHELL-1_ALLEL,TI,"shell < TI > < 5 section points > : SPOS, (fraction = 1.0)",120.404
C:/Users/srbb21/AppData/Local/Temp/rx18_gr30001521653382.841.odb,RELAX,Increment    105: Step Time =    1.000,SHELL-1,531,-7.51204,4.25,16.3556,ASSEMBLY_SHELL-1_ALLEL,TI,"shell < TI > < 5 section points > : SNEG, (fraction = -1.0)",132.091
C:/Users/srbb21/AppData/Local/Temp/rx18_gr30001521653382.841.odb,RELAX,Increment    105: Step Time =    1.000,SHELL-1,532,-7.51204,4.75,16.3556,ASSEMBLY_SHELL-1_ALLEL,TI,"shell < TI > < 5 section points > : SPOS, (fraction = 1.0)",120.52
C:/Users/srbb21/AppData/Local/Temp/rx18_gr30001521653382.841.odb,RELAX,Increment    105: Step Time =    1.000,SHELL-1,532,-7.51204,4.75,16.3556,ASSEMBLY_SHELL-1_ALLEL,TI,"shell < TI > < 5 section points > : SNEG, (fraction = -1.0)",131.024
C:/Users/srbb21/AppData/Local/Temp/rx18_gr30001521653382.841.odb,RELAX,Increment    105: Step Time =    1.000,SHELL-1,533,-7.51204,5.25,16.3556,ASSEMBLY_SHELL-1_ALLEL,TI,"shell < TI > < 5 section points > : SNEG, (fraction = -1.0)",129.441
C:/Users/srbb21/AppData/Local/Temp/rx18_gr30001521653382.841.odb,RELAX,Increment    105: Step Time =    1.000,SHELL-1,533,-7.51204,5.25,16.3556,ASSEMBLY_SHELL-1_ALLEL,TI,"shell < TI > < 5 section points > : SPOS, (fraction = 1.0)",121.045
C:/Users/srbb21/AppData/Local/Temp/rx18_gr30001521653382.841.odb,RELAX,Increment    105: Step Time =    1.000,SHELL-1,534,-7.51204,5.75,16.3556,ASSEMBLY_SHELL-1_ALLEL,TI,"shell < TI > < 5 section points > : SPOS, (fraction = 1.0)",122.089
C:/Users/srbb21/AppData/Local/Temp/rx18_gr30001521653382.841.odb,RELAX,Increment    105: Step Time =    1.000,SHELL-1,534,-7.51204,5.75,16.3556,ASSEMBLY_SHELL-1_ALLEL,TI,"shell < TI > < 5 section points > : SNEG, (fraction = -1.0)",127.225
C:/Users/srbb21/AppData/Local/Temp/rx18_gr30001521653382.841.odb,RELAX,Increment    105: Step Time =    1.000,SHELL-1,535,-7.51204,6.25,16.3556,ASSEMBLY_SHELL-1_ALLEL,TI,"shell < TI > < 5 section points > : SPOS, (fraction = 1.0)",123.758
C:/Users/srbb21/AppData/Local/Temp/rx18_gr30001521653382.841.odb,RELAX,Increment    105: Step Time =    1.000,SHELL-1,535,-7.51204,6.25,16.3556,ASSEMBLY_SHELL-1_ALLEL,TI,"shell < TI > < 5 section points > : SNEG, (fraction = -1.0)",124.275
C:/Users/srbb21/AppData/Local/Temp/rx18_gr30001521653382.841.odb,RELAX,Increment    105: Step Time =    1.000,SHELL-1,536,-7.51204,6.75,16.3556,ASSEMBLY_SHELL-1_ALLEL,TI,"shell < TI > < 5 section points > : SPOS, (fraction = 1.0)",126.14
C:/Users/srbb21/AppData/Local/Temp/rx18_gr30001521653382.841.odb,RELAX,Increment    105: Step Time =    1.000,SHELL-1,536,-7.51204,6.75,16.3556,ASSEMBLY_SHELL-1_ALLEL,TI,"shell < TI > < 5 section points > : SNEG, (fraction = -1.0)",120.516
C:/Users/srbb21/AppData/Local/Temp/rx18_gr30001521653382.841.odb,RELAX,Increment    105: Step Time =    1.000,SHELL-1,537,-7.51204,7.25,16.3556,ASSEMBLY_SHELL-1_ALLEL,TI,"shell < TI > < 5 section points > : SNEG, (fraction = -1.0)",115.928
C:/Users/srbb21/AppData/Local/Temp/rx18_gr30001521653382.841.odb,RELAX,Increment    105: Step Time =    1.000,SHELL-1,537,-7.51204,7.25,16.3556,ASSEMBLY_SHELL-1_ALLEL,TI,"shell < TI > < 5 section points > : SPOS, (fraction = 1.0)",129.281
C:/Users/srbb21/AppData/Local/Temp/rx18_gr30001521653382.841.odb,RELAX,Increment    105: Step Time =    1.000,SHELL-1,538,-7.51204,7.75,16.3556,ASSEMBLY_SHELL-1_ALLEL,TI,"shell < TI > < 5 section points > : SPOS, (fraction = 1.0)",133.164
C:/Users/srbb21/AppData/Local/Temp/rx18_gr30001521653382.841.odb,RELAX,Increment    105: Step Time =    1.000,SHELL-1,538,-7.51204,7.75,16.3556,ASSEMBLY_SHELL-1_ALLEL,TI,"shell < TI > < 5 section points > : SNEG, (fraction = -1.0)",110.568
C:/Users/srbb21/AppData/Local/Temp/rx18_gr30001521653382.841.odb,RELAX,Increment    105: Step Time =    1.000,SHELL-1,539,-7.51204,8.25,16.3556,ASSEMBLY_SHELL-1_ALLEL,TI,"shell < TI > < 5 section points > : SPOS, (fraction = 1.0)",137.684
C:/Users/srbb21/AppData/Local/Temp/rx18_gr30001521653382.841.odb,RELAX,Increment    105: Step Time =    1.000,SHELL-1,539,-7.51204,8.25,16.3556,ASSEMBLY_SHELL-1_ALLEL,TI,"shell < TI > < 5 section points > : SNEG, (fraction = -1.0)",104.604
C:/Users/srbb21/AppData/Local/Temp/rx18_gr30001521653382.841.odb,RELAX,Increment    105: Step Time =    1.000,SHELL-1,540,-7.51204,8.75,16.3556,ASSEMBLY_SHELL-1_ALLEL,TI,"shell < TI > < 5 section points > : SPOS, (fraction = 1.0)",142.632
C:/Users/srbb21/AppData/Local/Temp/rx18_gr30001521653382.841.odb,RELAX,Increment    105: Step Time =    1.000,SHELL-1,540,-7.51204,8.75,16.3556,ASSEMBLY_SHELL-1_ALLEL,TI,"shell < TI > < 5 section points > : SNEG, (fraction = -1.0)",98.3277
C:/Users/srbb21/AppData/Local/Temp/rx18_gr30001521653382.841.odb,RELAX,Increment    105: Step Time =    1.000,SHELL-1,541,-7.05488,-8.75,16.558,ASSEMBLY_SHELL-1_ALLEL,TI,"shell < TI > < 5 section points > : SNEG, (fraction = -1.0)",99.9496
C:/Users/srbb21/AppData/Local/Temp/rx18_gr30001521653382.841.odb,RELAX,Increment    105: Step Time =    1.000,SHELL-1,541,-7.05488,-8.75,16.558,ASSEMBLY_SHELL-1_ALLEL,TI,"shell < TI > < 5 section points > : SPOS, (fraction = 1.0)",141.94
C:/Users/srbb21/AppData/Local/Temp/rx18_gr30001521653382.841.odb,RELAX,Increment    105: Step Time =    1.000,SHELL-1,542,-7.05488,-8.25,16.558,ASSEMBLY_SHELL-1_ALLEL,TI,"shell < TI > < 5 section points > : SPOS, (fraction = 1.0)",137.508
C:/Users/srbb21/AppData/Local/Temp/rx18_gr30001521653382.841.odb,RELAX,Increment    105: Step Time =    1.000,SHELL-1,542,-7.05488,-8.25,16.558,ASSEMBLY_SHELL-1_ALLEL,TI,"shell < TI > < 5 section points > : SNEG, (fraction = -1.0)",105.566
C:/Users/srbb21/AppData/Local/Temp/rx18_gr30001521653382.841.odb,RELAX,Increment    105: Step Time =    1.000,SHELL-1,543,-7.05488,-7.75,16.558,ASSEMBLY_SHELL-1_ALLEL,TI,"shell < TI > < 5 section points > : SPOS, (fraction = 1.0)",133.402
C:/Users/srbb21/AppData/Local/Temp/rx18_gr30001521653382.841.odb,RELAX,Increment    105: Step Time =    1.000,SHELL-1,543,-7.05488,-7.75,16.558,ASSEMBLY_SHELL-1_ALLEL,TI,"shell < TI > < 5 section points > : SNEG, (fraction = -1.0)",110.935
C:/Users/srbb21/AppData/Local/Temp/rx18_gr30001521653382.841.odb,RELAX,Increment    105: Step Time =    1.000,SHELL-1,544,-7.05488,-7.25,16.558,ASSEMBLY_SHELL-1_ALLEL,TI,"shell < TI > < 5 section points > : SPOS, (fraction = 1.0)",129.782
C:/Users/srbb21/AppData/Local/Temp/rx18_gr30001521653382.841.odb,RELAX,Increment    105: Step Time =    1.000,SHELL-1,544,-7.05488,-7.25,16.558,ASSEMBLY_SHELL-1_ALLEL,TI,"shell < TI > < 5 section points > : SNEG, (fraction = -1.0)",115.822
C:/Users/srbb21/AppData/Local/Temp/rx18_gr30001521653382.841.odb,RELAX,Increment    105: Step Time =    1.000,SHELL-1,545,-7.05488,-6.75,16.558,ASSEMBLY_SHELL-1_ALLEL,TI,"shell < TI > < 5 section points > : SPOS, (fraction = 1.0)",126.751
C:/Users/srbb21/AppData/Local/Temp/rx18_gr30001521653382.841.odb,RELAX,Increment    105: Step Time =    1.000,SHELL-1,545,-7.05488,-6.75,16.558,ASSEMBLY_SHELL-1_ALLEL,TI,"shell < TI > < 5 section points > : SNEG, (fraction = -1.0)",120.069
C:/Users/srbb21/AppData/Local/Temp/rx18_gr30001521653382.841.odb,RELAX,Increment    105: Step Time =    1.000,SHELL-1,546,-7.05488,-6.25,16.558,ASSEMBLY_SHELL-1_ALLEL,TI,"shell < TI > < 5 section points > : SNEG, (fraction = -1.0)",123.613
C:/Users/srbb21/AppData/Local/Temp/rx18_gr30001521653382.841.odb,RELAX,Increment    105: Step Time =    1.000,SHELL-1,546,-7.05488,-6.25,16.558,ASSEMBLY_SHELL-1_ALLEL,TI,"shell < TI > < 5 section points > : SPOS, (fraction = 1.0)",124.335
C:/Users/srbb21/AppData/Local/Temp/rx18_gr30001521653382.841.odb,RELAX,Increment    105: Step Time =    1.000,SHELL-1,547,-7.05488,-5.75,16.558,ASSEMBLY_SHELL-1_ALLEL,TI,"shell < TI > < 5 section points > : SPOS, (fraction = 1.0)",122.52
C:/Users/srbb21/AppData/Local/Temp/rx18_gr30001521653382.841.odb,RELAX,Increment    105: Step Time =    1.000,SHELL-1,547,-7.05488,-5.75,16.558,ASSEMBLY_SHELL-1_ALLEL,TI,"shell < TI > < 5 section points > : SNEG, (fraction = -1.0)",126.45
C:/Users/srbb21/AppData/Local/Temp/rx18_gr30001521653382.841.odb,RELAX,Increment    105: Step Time =    1.000,SHELL-1,548,-7.05488,-5.25,16.558,ASSEMBLY_SHELL-1_ALLEL,TI,"shell < TI > < 5 section points > : SPOS, (fraction = 1.0)",121.25
C:/Users/srbb21/AppData/Local/Temp/rx18_gr30001521653382.841.odb,RELAX,Increment    105: Step Time =    1.000,SHELL-1,548,-7.05488,-5.25,16.558,ASSEMBLY_SHELL-1_ALLEL,TI,"shell < TI > < 5 section points > : SNEG, (fraction = -1.0)",128.629
C:/Users/srbb21/AppData/Local/Temp/rx18_gr30001521653382.841.odb,RELAX,Increment    105: Step Time =    1.000,SHELL-1,549,-7.05488,-4.75,16.558,ASSEMBLY_SHELL-1_ALLEL,TI,"shell < TI > < 5 section points > : SPOS, (fraction = 1.0)",120.452
C:/Users/srbb21/AppData/Local/Temp/rx18_gr30001521653382.841.odb,RELAX,Increment    105: Step Time =    1.000,SHELL-1,549,-7.05488,-4.75,16.558,ASSEMBLY_SHELL-1_ALLEL,TI,"shell < TI > < 5 section points > : SNEG, (fraction = -1.0)",130.226
C:/Users/srbb21/AppData/Local/Temp/rx18_gr30001521653382.841.odb,RELAX,Increment    105: Step Time =    1.000,SHELL-1,550,-7.05488,-4.25,16.558,ASSEMBLY_SHELL-1_ALLEL,TI,"shell < TI > < 5 section points > : SNEG, (fraction = -1.0)",131.334
C:/Users/srbb21/AppData/Local/Temp/rx18_gr30001521653382.841.odb,RELAX,Increment    105: Step Time =    1.000,SHELL-1,550,-7.05488,-4.25,16.558,ASSEMBLY_SHELL-1_ALLEL,TI,"shell < TI > < 5 section points > : SPOS, (fraction = 1.0)",120.043
C:/Users/srbb21/AppData/Local/Temp/rx18_gr30001521653382.841.odb,RELAX,Increment    105: Step Time =    1.000,SHELL-1,551,-7.05488,-3.75,16.558,ASSEMBLY_SHELL-1_ALLEL,TI,"shell < TI > < 5 section points > : SPOS, (fraction = 1.0)",119.937
C:/Users/srbb21/AppData/Local/Temp/rx18_gr30001521653382.841.odb,RELAX,Increment    105: Step Time =    1.000,SHELL-1,551,-7.05488,-3.75,16.558,ASSEMBLY_SHELL-1_ALLEL,TI,"shell < TI > < 5 section points > : SNEG, (fraction = -1.0)",132.052
C:/Users/srbb21/AppData/Local/Temp/rx18_gr30001521653382.841.odb,RELAX,Increment    105: Step Time =    1.000,SHELL-1,552,-7.05488,-3.25,16.558,ASSEMBLY_SHELL-1_ALLEL,TI,"shell < TI > < 5 section points > : SPOS, (fraction = 1.0)",120.049
C:/Users/srbb21/AppData/Local/Temp/rx18_gr30001521653382.841.odb,RELAX,Increment    105: Step Time =    1.000,SHELL-1,552,-7.05488,-3.25,16.558,ASSEMBLY_SHELL-1_ALLEL,TI,"shell < TI > < 5 section points > : SNEG, (fraction = -1.0)",132.473
C:/Users/srbb21/AppData/Local/Temp/rx18_gr30001521653382.841.odb,RELAX,Increment    105: Step Time =    1.000,SHELL-1,553,-7.05488,-2.75,16.558,ASSEMBLY_SHELL-1_ALLEL,TI,"shell < TI > < 5 section points > : SPOS, (fraction = 1.0)",120.303
C:/Users/srbb21/AppData/Local/Temp/rx18_gr30001521653382.841.odb,RELAX,Increment    105: Step Time =    1.000,SHELL-1,553,-7.05488,-2.75,16.558,ASSEMBLY_SHELL-1_ALLEL,TI,"shell < TI > < 5 section points > : SNEG, (fraction = -1.0)",132.684
C:/Users/srbb21/AppData/Local/Temp/rx18_gr30001521653382.841.odb,RELAX,Increment    105: Step Time =    1.000,SHELL-1,554,-7.05488,-2.25,16.558,ASSEMBLY_SHELL-1_ALLEL,TI,"shell < TI > < 5 section points > : SNEG, (fraction = -1.0)",132.754
C:/Users/srbb21/AppData/Local/Temp/rx18_gr30001521653382.841.odb,RELAX,Increment    105: Step Time =    1.000,SHELL-1,554,-7.05488,-2.25,16.558,ASSEMBLY_SHELL-1_ALLEL,TI,"shell < TI > < 5 section points > : SPOS, (fraction = 1.0)",120.628
C:/Users/srbb21/AppData/Local/Temp/rx18_gr30001521653382.841.odb,RELAX,Increment    105: Step Time =    1.000,SHELL-1,555,-7.05488,-1.75,16.558,ASSEMBLY_SHELL-1_ALLEL,TI,"shell < TI > < 5 section points > : SPOS, (fraction = 1.0)",120.963
C:/Users/srbb21/AppData/Local/Temp/rx18_gr30001521653382.841.odb,RELAX,Increment    105: Step Time =    1.000,SHELL-1,555,-7.05488,-1.75,16.558,ASSEMBLY_SHELL-1_ALLEL,TI,"shell < TI > < 5 section points > : SNEG, (fraction = -1.0)",132.745
C:/Users/srbb21/AppData/Local/Temp/rx18_gr30001521653382.841.odb,RELAX,Increment    105: Step Time =    1.000,SHELL-1,556,-7.05488,-1.25,16.558,ASSEMBLY_SHELL-1_ALLEL,TI,"shell < TI > < 5 section points > : SPOS, (fraction = 1.0)",121.259
C:/Users/srbb21/AppData/Local/Temp/rx18_gr30001521653382.841.odb,RELAX,Increment    105: Step Time =    1.000,SHELL-1,556,-7.05488,-1.25,16.558,ASSEMBLY_SHELL-1_ALLEL,TI,"shell < TI > < 5 section points > : SNEG, (fraction = -1.0)",132.701
C:/Users/srbb21/AppData/Local/Temp/rx18_gr30001521653382.841.odb,RELAX,Increment    105: Step Time =    1.000,SHELL-1,557,-7.05488,-0.75,16.558,ASSEMBLY_SHELL-1_ALLEL,TI,"shell < TI > < 5 section points > : SPOS, (fraction = 1.0)",121.478
C:/Users/srbb21/AppData/Local/Temp/rx18_gr30001521653382.841.odb,RELAX,Increment    105: Step Time =    1.000,SHELL-1,557,-7.05488,-0.75,16.558,ASSEMBLY_SHELL-1_ALLEL,TI,"shell < TI > < 5 section points > : SNEG, (fraction = -1.0)",132.654
C:/Users/srbb21/AppData/Local/Temp/rx18_gr30001521653382.841.odb,RELAX,Increment    105: Step Time =    1.000,SHELL-1,558,-7.05488,-0.25,16.558,ASSEMBLY_SHELL-1_ALLEL,TI,"shell < TI > < 5 section points > : SNEG, (fraction = -1.0)",132.625
C:/Users/srbb21/AppData/Local/Temp/rx18_gr30001521653382.841.odb,RELAX,Increment    105: Step Time =    1.000,SHELL-1,558,-7.05488,-0.25,16.558,ASSEMBLY_SHELL-1_ALLEL,TI,"shell < TI > < 5 section points > : SPOS, (fraction = 1.0)",121.593
C:/Users/srbb21/AppData/Local/Temp/rx18_gr30001521653382.841.odb,RELAX,Increment    105: Step Time =    1.000,SHELL-1,559,-7.05488,0.25,16.558,ASSEMBLY_SHELL-1_ALLEL,TI,"shell < TI > < 5 section points > : SPOS, (fraction = 1.0)",121.593
C:/Users/srbb21/AppData/Local/Temp/rx18_gr30001521653382.841.odb,RELAX,Increment    105: Step Time =    1.000,SHELL-1,559,-7.05488,0.25,16.558,ASSEMBLY_SHELL-1_ALLEL,TI,"shell < TI > < 5 section points > : SNEG, (fraction = -1.0)",132.625
C:/Users/srbb21/AppData/Local/Temp/rx18_gr30001521653382.841.odb,RELAX,Increment    105: Step Time =    1.000,SHELL-1,560,-7.05488,0.75,16.558,ASSEMBLY_SHELL-1_ALLEL,TI,"shell < TI > < 5 section points > : SPOS, (fraction = 1.0)",121.478
C:/Users/srbb21/AppData/Local/Temp/rx18_gr30001521653382.841.odb,RELAX,Increment    105: Step Time =    1.000,SHELL-1,560,-7.05488,0.75,16.558,ASSEMBLY_SHELL-1_ALLEL,TI,"shell < TI > < 5 section points > : SNEG, (fraction = -1.0)",132.654
C:/Users/srbb21/AppData/Local/Temp/rx18_gr30001521653382.841.odb,RELAX,Increment    105: Step Time =    1.000,SHELL-1,561,-7.05488,1.25,16.558,ASSEMBLY_SHELL-1_ALLEL,TI,"shell < TI > < 5 section points > : SPOS, (fraction = 1.0)",121.259
C:/Users/srbb21/AppData/Local/Temp/rx18_gr30001521653382.841.odb,RELAX,Increment    105: Step Time =    1.000,SHELL-1,561,-7.05488,1.25,16.558,ASSEMBLY_SHELL-1_ALLEL,TI,"shell < TI > < 5 section points > : SNEG, (fraction = -1.0)",132.701
C:/Users/srbb21/AppData/Local/Temp/rx18_gr30001521653382.841.odb,RELAX,Increment    105: Step Time =    1.000,SHELL-1,562,-7.05488,1.75,16.558,ASSEMBLY_SHELL-1_ALLEL,TI,"shell < TI > < 5 section points > : SPOS, (fraction = 1.0)",120.963
C:/Users/srbb21/AppData/Local/Temp/rx18_gr30001521653382.841.odb,RELAX,Increment    105: Step Time =    1.000,SHELL-1,562,-7.05488,1.75,16.558,ASSEMBLY_SHELL-1_ALLEL,TI,"shell < TI > < 5 section points > : SNEG, (fraction = -1.0)",132.745
C:/Users/srbb21/AppData/Local/Temp/rx18_gr30001521653382.841.odb,RELAX,Increment    105: Step Time =    1.000,SHELL-1,563,-7.05488,2.25,16.558,ASSEMBLY_SHELL-1_ALLEL,TI,"shell < TI > < 5 section points > : SNEG, (fraction = -1.0)",132.754
C:/Users/srbb21/AppData/Local/Temp/rx18_gr30001521653382.841.odb,RELAX,Increment    105: Step Time =    1.000,SHELL-1,563,-7.05488,2.25,16.558,ASSEMBLY_SHELL-1_ALLEL,TI,"shell < TI > < 5 section points > : SPOS, (fraction = 1.0)",120.628
C:/Users/srbb21/AppData/Local/Temp/rx18_gr30001521653382.841.odb,RELAX,Increment    105: Step Time =    1.000,SHELL-1,564,-7.05488,2.75,16.558,ASSEMBLY_SHELL-1_ALLEL,TI,"shell < TI > < 5 section points > : SPOS, (fraction = 1.0)",120.303
C:/Users/srbb21/AppData/Local/Temp/rx18_gr30001521653382.841.odb,RELAX,Increment    105: Step Time =    1.000,SHELL-1,564,-7.05488,2.75,16.558,ASSEMBLY_SHELL-1_ALLEL,TI,"shell < TI > < 5 section points > : SNEG, (fraction = -1.0)",132.684
C:/Users/srbb21/AppData/Local/Temp/rx18_gr30001521653382.841.odb,RELAX,Increment    105: Step Time =    1.000,SHELL-1,565,-7.05488,3.25,16.558,ASSEMBLY_SHELL-1_ALLEL,TI,"shell < TI > < 5 section points > : SPOS, (fraction = 1.0)",120.049
C:/Users/srbb21/AppData/Local/Temp/rx18_gr30001521653382.841.odb,RELAX,Increment    105: Step Time =    1.000,SHELL-1,565,-7.05488,3.25,16.558,ASSEMBLY_SHELL-1_ALLEL,TI,"shell < TI > < 5 section points > : SNEG, (fraction = -1.0)",132.473
C:/Users/srbb21/AppData/Local/Temp/rx18_gr30001521653382.841.odb,RELAX,Increment    105: Step Time =    1.000,SHELL-1,566,-7.05488,3.75,16.558,ASSEMBLY_SHELL-1_ALLEL,TI,"shell < TI > < 5 section points > : SPOS, (fraction = 1.0)",119.937
C:/Users/srbb21/AppData/Local/Temp/rx18_gr30001521653382.841.odb,RELAX,Increment    105: Step Time =    1.000,SHELL-1,566,-7.05488,3.75,16.558,ASSEMBLY_SHELL-1_ALLEL,TI,"shell < TI > < 5 section points > : SNEG, (fraction = -1.0)",132.052
C:/Users/srbb21/AppData/Local/Temp/rx18_gr30001521653382.841.odb,RELAX,Increment    105: Step Time =    1.000,SHELL-1,567,-7.05488,4.25,16.558,ASSEMBLY_SHELL-1_ALLEL,TI,"shell < TI > < 5 section points > : SNEG, (fraction = -1.0)",131.334
C:/Users/srbb21/AppData/Local/Temp/rx18_gr30001521653382.841.odb,RELAX,Increment    105: Step Time =    1.000,SHELL-1,567,-7.05488,4.25,16.558,ASSEMBLY_SHELL-1_ALLEL,TI,"shell < TI > < 5 section points > : SPOS, (fraction = 1.0)",120.043
C:/Users/srbb21/AppData/Local/Temp/rx18_gr30001521653382.841.odb,RELAX,Increment    105: Step Time =    1.000,SHELL-1,568,-7.05488,4.75,16.558,ASSEMBLY_SHELL-1_ALLEL,TI,"shell < TI > < 5 section points > : SPOS, (fraction = 1.0)",120.452
C:/Users/srbb21/AppData/Local/Temp/rx18_gr30001521653382.841.odb,RELAX,Increment    105: Step Time =    1.000,SHELL-1,568,-7.05488,4.75,16.558,ASSEMBLY_SHELL-1_ALLEL,TI,"shell < TI > < 5 section points > : SNEG, (fraction = -1.0)",130.226
C:/Users/srbb21/AppData/Local/Temp/rx18_gr30001521653382.841.odb,RELAX,Increment    105: Step Time =    1.000,SHELL-1,569,-7.05488,5.25,16.558,ASSEMBLY_SHELL-1_ALLEL,TI,"shell < TI > < 5 section points > : SPOS, (fraction = 1.0)",121.25
C:/Users/srbb21/AppData/Local/Temp/rx18_gr30001521653382.841.odb,RELAX,Increment    105: Step Time =    1.000,SHELL-1,569,-7.05488,5.25,16.558,ASSEMBLY_SHELL-1_ALLEL,TI,"shell < TI > < 5 section points > : SNEG, (fraction = -1.0)",128.629
C:/Users/srbb21/AppData/Local/Temp/rx18_gr30001521653382.841.odb,RELAX,Increment    105: Step Time =    1.000,SHELL-1,570,-7.05488,5.75,16.558,ASSEMBLY_SHELL-1_ALLEL,TI,"shell < TI > < 5 section points > : SPOS, (fraction = 1.0)",122.52
C:/Users/srbb21/AppData/Local/Temp/rx18_gr30001521653382.841.odb,RELAX,Increment    105: Step Time =    1.000,SHELL-1,570,-7.05488,5.75,16.558,ASSEMBLY_SHELL-1_ALLEL,TI,"shell < TI > < 5 section points > : SNEG, (fraction = -1.0)",126.45
C:/Users/srbb21/AppData/Local/Temp/rx18_gr30001521653382.841.odb,RELAX,Increment    105: Step Time =    1.000,SHELL-1,571,-7.05488,6.25,16.558,ASSEMBLY_SHELL-1_ALLEL,TI,"shell < TI > < 5 section points > : SNEG, (fraction = -1.0)",123.613
C:/Users/srbb21/AppData/Local/Temp/rx18_gr30001521653382.841.odb,RELAX,Increment    105: Step Time =    1.000,SHELL-1,571,-7.05488,6.25,16.558,ASSEMBLY_SHELL-1_ALLEL,TI,"shell < TI > < 5 section points > : SPOS, (fraction = 1.0)",124.335
C:/Users/srbb21/AppData/Local/Temp/rx18_gr30001521653382.841.odb,RELAX,Increment    105: Step Time =    1.000,SHELL-1,572,-7.05488,6.75,16.558,ASSEMBLY_SHELL-1_ALLEL,TI,"shell < TI > < 5 section points > : SPOS, (fraction = 1.0)",126.751
C:/Users/srbb21/AppData/Local/Temp/rx18_gr30001521653382.841.odb,RELAX,Increment    105: Step Time =    1.000,SHELL-1,572,-7.05488,6.75,16.558,ASSEMBLY_SHELL-1_ALLEL,TI,"shell < TI > < 5 section points > : SNEG, (fraction = -1.0)",120.069
C:/Users/srbb21/AppData/Local/Temp/rx18_gr30001521653382.841.odb,RELAX,Increment    105: Step Time =    1.000,SHELL-1,573,-7.05488,7.25,16.558,ASSEMBLY_SHELL-1_ALLEL,TI,"shell < TI > < 5 section points > : SPOS, (fraction = 1.0)",129.782
C:/Users/srbb21/AppData/Local/Temp/rx18_gr30001521653382.841.odb,RELAX,Increment    105: Step Time =    1.000,SHELL-1,573,-7.05488,7.25,16.558,ASSEMBLY_SHELL-1_ALLEL,TI,"shell < TI > < 5 section points > : SNEG, (fraction = -1.0)",115.822
C:/Users/srbb21/AppData/Local/Temp/rx18_gr30001521653382.841.odb,RELAX,Increment    105: Step Time =    1.000,SHELL-1,574,-7.05488,7.75,16.558,ASSEMBLY_SHELL-1_ALLEL,TI,"shell < TI > < 5 section points > : SPOS, (fraction = 1.0)",133.402
C:/Users/srbb21/AppData/Local/Temp/rx18_gr30001521653382.841.odb,RELAX,Increment    105: Step Time =    1.000,SHELL-1,574,-7.05488,7.75,16.558,ASSEMBLY_SHELL-1_ALLEL,TI,"shell < TI > < 5 section points > : SNEG, (fraction = -1.0)",110.935
C:/Users/srbb21/AppData/Local/Temp/rx18_gr30001521653382.841.odb,RELAX,Increment    105: Step Time =    1.000,SHELL-1,575,-7.05488,8.25,16.558,ASSEMBLY_SHELL-1_ALLEL,TI,"shell < TI > < 5 section points > : SNEG, (fraction = -1.0)",105.566
C:/Users/srbb21/AppData/Local/Temp/rx18_gr30001521653382.841.odb,RELAX,Increment    105: Step Time =    1.000,SHELL-1,575,-7.05488,8.25,16.558,ASSEMBLY_SHELL-1_ALLEL,TI,"shell < TI > < 5 section points > : SPOS, (fraction = 1.0)",137.508
C:/Users/srbb21/AppData/Local/Temp/rx18_gr30001521653382.841.odb,RELAX,Increment    105: Step Time =    1.000,SHELL-1,576,-7.05488,8.75,16.558,ASSEMBLY_SHELL-1_ALLEL,TI,"shell < TI > < 5 section points > : SPOS, (fraction = 1.0)",141.94
C:/Users/srbb21/AppData/Local/Temp/rx18_gr30001521653382.841.odb,RELAX,Increment    105: Step Time =    1.000,SHELL-1,576,-7.05488,8.75,16.558,ASSEMBLY_SHELL-1_ALLEL,TI,"shell < TI > < 5 section points > : SNEG, (fraction = -1.0)",99.9496
C:/Users/srbb21/AppData/Local/Temp/rx18_gr30001521653382.841.odb,RELAX,Increment    105: Step Time =    1.000,SHELL-1,577,-6.59227,-8.75,16.7475,ASSEMBLY_SHELL-1_ALLEL,TI,"shell < TI > < 5 section points > : SPOS, (fraction = 1.0)",141.361
C:/Users/srbb21/AppData/Local/Temp/rx18_gr30001521653382.841.odb,RELAX,Increment    105: Step Time =    1.000,SHELL-1,577,-6.59227,-8.75,16.7475,ASSEMBLY_SHELL-1_ALLEL,TI,"shell < TI > < 5 section points > : SNEG, (fraction = -1.0)",101.252
C:/Users/srbb21/AppData/Local/Temp/rx18_gr30001521653382.841.odb,RELAX,Increment    105: Step Time =    1.000,SHELL-1,578,-6.59227,-8.25,16.7475,ASSEMBLY_SHELL-1_ALLEL,TI,"shell < TI > < 5 section points > : SPOS, (fraction = 1.0)",137.322
C:/Users/srbb21/AppData/Local/Temp/rx18_gr30001521653382.841.odb,RELAX,Increment    105: Step Time =    1.000,SHELL-1,578,-6.59227,-8.25,16.7475,ASSEMBLY_SHELL-1_ALLEL,TI,"shell < TI > < 5 section points > : SNEG, (fraction = -1.0)",106.35
C:/Users/srbb21/AppData/Local/Temp/rx18_gr30001521653382.841.odb,RELAX,Increment    105: Step Time =    1.000,SHELL-1,579,-6.59227,-7.75,16.7475,ASSEMBLY_SHELL-1_ALLEL,TI,"shell < TI > < 5 section points > : SPOS, (fraction = 1.0)",133.551
C:/Users/srbb21/AppData/Local/Temp/rx18_gr30001521653382.841.odb,RELAX,Increment    105: Step Time =    1.000,SHELL-1,579,-6.59227,-7.75,16.7475,ASSEMBLY_SHELL-1_ALLEL,TI,"shell < TI > < 5 section points > : SNEG, (fraction = -1.0)",111.233
C:/Users/srbb21/AppData/Local/Temp/rx18_gr30001521653382.841.odb,RELAX,Increment    105: Step Time =    1.000,SHELL-1,580,-6.59227,-7.25,16.7475,ASSEMBLY_SHELL-1_ALLEL,TI,"shell < TI > < 5 section points > : SNEG, (fraction = -1.0)",115.709
C:/Users/srbb21/AppData/Local/Temp/rx18_gr30001521653382.841.odb,RELAX,Increment    105: Step Time =    1.000,SHELL-1,580,-6.59227,-7.25,16.7475,ASSEMBLY_SHELL-1_ALLEL,TI,"shell < TI > < 5 section points > : SPOS, (fraction = 1.0)",130.17
C:/Users/srbb21/AppData/Local/Temp/rx18_gr30001521653382.841.odb,RELAX,Increment    105: Step Time =    1.000,SHELL-1,581,-6.59227,-6.75,16.7475,ASSEMBLY_SHELL-1_ALLEL,TI,"shell < TI > < 5 section points > : SPOS, (fraction = 1.0)",127.262
C:/Users/srbb21/AppData/Local/Temp/rx18_gr30001521653382.841.odb,RELAX,Increment    105: Step Time =    1.000,SHELL-1,581,-6.59227,-6.75,16.7475,ASSEMBLY_SHELL-1_ALLEL,TI,"shell < TI > < 5 section points > : SNEG, (fraction = -1.0)",119.65
C:/Users/srbb21/AppData/Local/Temp/rx18_gr30001521653382.841.odb,RELAX,Increment    105: Step Time =    1.000,SHELL-1,582,-6.59227,-6.25,16.7475,ASSEMBLY_SHELL-1_ALLEL,TI,"shell < TI > < 5 section points > : SPOS, (fraction = 1.0)",124.86
C:/Users/srbb21/AppData/Local/Temp/rx18_gr30001521653382.841.odb,RELAX,Increment    105: Step Time =    1.000,SHELL-1,582,-6.59227,-6.25,16.7475,ASSEMBLY_SHELL-1_ALLEL,TI,"shell < TI > < 5 section points > : SNEG, (fraction = -1.0)",122.988
C:/Users/srbb21/AppData/Local/Temp/rx18_gr30001521653382.841.odb,RELAX,Increment    105: Step Time =    1.000,SHELL-1,583,-6.59227,-5.75,16.7475,ASSEMBLY_SHELL-1_ALLEL,TI,"shell < TI > < 5 section points > : SPOS, (fraction = 1.0)",122.96
C:/Users/srbb21/AppData/Local/Temp/rx18_gr30001521653382.841.odb,RELAX,Increment    105: Step Time =    1.000,SHELL-1,583,-6.59227,-5.75,16.7475,ASSEMBLY_SHELL-1_ALLEL,TI,"shell < TI > < 5 section points > : SNEG, (fraction = -1.0)",125.71
C:/Users/srbb21/AppData/Local/Temp/rx18_gr30001521653382.841.odb,RELAX,Increment    105: Step Time =    1.000,SHELL-1,584,-6.59227,-5.25,16.7475,ASSEMBLY_SHELL-1_ALLEL,TI,"shell < TI > < 5 section points > : SNEG, (fraction = -1.0)",127.843
C:/Users/srbb21/AppData/Local/Temp/rx18_gr30001521653382.841.odb,RELAX,Increment    105: Step Time =    1.000,SHELL-1,584,-6.59227,-5.25,16.7475,ASSEMBLY_SHELL-1_ALLEL,TI,"shell < TI > < 5 section points > : SPOS, (fraction = 1.0)",121.533
C:/Users/srbb21/AppData/Local/Temp/rx18_gr30001521653382.841.odb,RELAX,Increment    105: Step Time =    1.000,SHELL-1,585,-6.59227,-4.75,16.7475,ASSEMBLY_SHELL-1_ALLEL,TI,"shell < TI > < 5 section points > : SPOS, (fraction = 1.0)",120.526
C:/Users/srbb21/AppData/Local/Temp/rx18_gr30001521653382.841.odb,RELAX,Increment    105: Step Time =    1.000,SHELL-1,585,-6.59227,-4.75,16.7475,ASSEMBLY_SHELL-1_ALLEL,TI,"shell < TI > < 5 section points > : SNEG, (fraction = -1.0)",129.443
C:/Users/srbb21/AppData/Local/Temp/rx18_gr30001521653382.841.odb,RELAX,Increment    105: Step Time =    1.000,SHELL-1,586,-6.59227,-4.25,16.7475,ASSEMBLY_SHELL-1_ALLEL,TI,"shell < TI > < 5 section points > : SPOS, (fraction = 1.0)",119.879
C:/Users/srbb21/AppData/Local/Temp/rx18_gr30001521653382.841.odb,RELAX,Increment    105: Step Time =    1.000,SHELL-1,586,-6.59227,-4.25,16.7475,ASSEMBLY_SHELL-1_ALLEL,TI,"shell < TI > < 5 section points > : SNEG, (fraction = -1.0)",130.587
C:/Users/srbb21/AppData/Local/Temp/rx18_gr30001521653382.841.odb,RELAX,Increment    105: Step Time =    1.000,SHELL-1,587,-6.59227,-3.75,16.7475,ASSEMBLY_SHELL-1_ALLEL,TI,"shell < TI > < 5 section points > : SPOS, (fraction = 1.0)",119.526
C:/Users/srbb21/AppData/Local/Temp/rx18_gr30001521653382.841.odb,RELAX,Increment    105: Step Time =    1.000,SHELL-1,587,-6.59227,-3.75,16.7475,ASSEMBLY_SHELL-1_ALLEL,TI,"shell < TI > < 5 section points > : SNEG, (fraction = -1.0)",131.356
C:/Users/srbb21/AppData/Local/Temp/rx18_gr30001521653382.841.odb,RELAX,Increment    105: Step Time =    1.000,SHELL-1,588,-6.59227,-3.25,16.7475,ASSEMBLY_SHELL-1_ALLEL,TI,"shell < TI > < 5 section points > : SNEG, (fraction = -1.0)",131.834
C:/Users/srbb21/AppData/Local/Temp/rx18_gr30001521653382.841.odb,RELAX,Increment    105: Step Time =    1.000,SHELL-1,588,-6.59227,-3.25,16.7475,ASSEMBLY_SHELL-1_ALLEL,TI,"shell < TI > < 5 section points > : SPOS, (fraction = 1.0)",119.398
C:/Users/srbb21/AppData/Local/Temp/rx18_gr30001521653382.841.odb,RELAX,Increment    105: Step Time =    1.000,SHELL-1,589,-6.59227,-2.75,16.7475,ASSEMBLY_SHELL-1_ALLEL,TI,"shell < TI > < 5 section points > : SPOS, (fraction = 1.0)",119.43
C:/Users/srbb21/AppData/Local/Temp/rx18_gr30001521653382.841.odb,RELAX,Increment    105: Step Time =    1.000,SHELL-1,589,-6.59227,-2.75,16.7475,ASSEMBLY_SHELL-1_ALLEL,TI,"shell < TI > < 5 section points > : SNEG, (fraction = -1.0)",132.098
C:/Users/srbb21/AppData/Local/Temp/rx18_gr30001521653382.841.odb,RELAX,Increment    105: Step Time =    1.000,SHELL-1,590,-6.59227,-2.25,16.7475,ASSEMBLY_SHELL-1_ALLEL,TI,"shell < TI > < 5 section points > : SPOS, (fraction = 1.0)",119.561
C:/Users/srbb21/AppData/Local/Temp/rx18_gr30001521653382.841.odb,RELAX,Increment    105: Step Time =    1.000,SHELL-1,590,-6.59227,-2.25,16.7475,ASSEMBLY_SHELL-1_ALLEL,TI,"shell < TI > < 5 section points > : SNEG, (fraction = -1.0)",132.216
C:/Users/srbb21/AppData/Local/Temp/rx18_gr30001521653382.841.odb,RELAX,Increment    105: Step Time =    1.000,SHELL-1,591,-6.59227,-1.75,16.7475,ASSEMBLY_SHELL-1_ALLEL,TI,"shell < TI > < 5 section points > : SPOS, (fraction = 1.0)",119.736
C:/Users/srbb21/AppData/Local/Temp/rx18_gr30001521653382.841.odb,RELAX,Increment    105: Step Time =    1.000,SHELL-1,591,-6.59227,-1.75,16.7475,ASSEMBLY_SHELL-1_ALLEL,TI,"shell < TI > < 5 section points > : SNEG, (fraction = -1.0)",132.244
C:/Users/srbb21/AppData/Local/Temp/rx18_gr30001521653382.841.odb,RELAX,Increment    105: Step Time =    1.000,SHELL-1,592,-6.59227,-1.25,16.7475,ASSEMBLY_SHELL-1_ALLEL,TI,"shell < TI > < 5 section points > : SNEG, (fraction = -1.0)",132.228
C:/Users/srbb21/AppData/Local/Temp/rx18_gr30001521653382.841.odb,RELAX,Increment    105: Step Time =    1.000,SHELL-1,592,-6.59227,-1.25,16.7475,ASSEMBLY_SHELL-1_ALLEL,TI,"shell < TI > < 5 section points > : SPOS, (fraction = 1.0)",119.909
C:/Users/srbb21/AppData/Local/Temp/rx18_gr30001521653382.841.odb,RELAX,Increment    105: Step Time =    1.000,SHELL-1,593,-6.59227,-0.75,16.7475,ASSEMBLY_SHELL-1_ALLEL,TI,"shell < TI > < 5 section points > : SPOS, (fraction = 1.0)",120.044
C:/Users/srbb21/AppData/Local/Temp/rx18_gr30001521653382.841.odb,RELAX,Increment    105: Step Time =    1.000,SHELL-1,593,-6.59227,-0.75,16.7475,ASSEMBLY_SHELL-1_ALLEL,TI,"shell < TI > < 5 section points > : SNEG, (fraction = -1.0)",132.199
C:/Users/srbb21/AppData/Local/Temp/rx18_gr30001521653382.841.odb,RELAX,Increment    105: Step Time =    1.000,SHELL-1,594,-6.59227,-0.25,16.7475,ASSEMBLY_SHELL-1_ALLEL,TI,"shell < TI > < 5 section points > : SPOS, (fraction = 1.0)",120.118
C:/Users/srbb21/AppData/Local/Temp/rx18_gr30001521653382.841.odb,RELAX,Increment    105: Step Time =    1.000,SHELL-1,594,-6.59227,-0.25,16.7475,ASSEMBLY_SHELL-1_ALLEL,TI,"shell < TI > < 5 section points > : SNEG, (fraction = -1.0)",132.179
C:/Users/srbb21/AppData/Local/Temp/rx18_gr30001521653382.841.odb,RELAX,Increment    105: Step Time =    1.000,SHELL-1,595,-6.59227,0.25,16.7475,ASSEMBLY_SHELL-1_ALLEL,TI,"shell < TI > < 5 section points > : SPOS, (fraction = 1.0)",120.118
C:/Users/srbb21/AppData/Local/Temp/rx18_gr30001521653382.841.odb,RELAX,Increment    105: Step Time =    1.000,SHELL-1,595,-6.59227,0.25,16.7475,ASSEMBLY_SHELL-1_ALLEL,TI,"shell < TI > < 5 section points > : SNEG, (fraction = -1.0)",132.179
C:/Users/srbb21/AppData/Local/Temp/rx18_gr30001521653382.841.odb,RELAX,Increment    105: Step Time =    1.000,SHELL-1,596,-6.59227,0.75,16.7475,ASSEMBLY_SHELL-1_ALLEL,TI,"shell < TI > < 5 section points > : SPOS, (fraction = 1.0)",120.044
C:/Users/srbb21/AppData/Local/Temp/rx18_gr30001521653382.841.odb,RELAX,Increment    105: Step Time =    1.000,SHELL-1,596,-6.59227,0.75,16.7475,ASSEMBLY_SHELL-1_ALLEL,TI,"shell < TI > < 5 section points > : SNEG, (fraction = -1.0)",132.199
C:/Users/srbb21/AppData/Local/Temp/rx18_gr30001521653382.841.odb,RELAX,Increment    105: Step Time =    1.000,SHELL-1,597,-6.59227,1.25,16.7475,ASSEMBLY_SHELL-1_ALLEL,TI,"shell < TI > < 5 section points > : SNEG, (fraction = -1.0)",132.228
C:/Users/srbb21/AppData/Local/Temp/rx18_gr30001521653382.841.odb,RELAX,Increment    105: Step Time =    1.000,SHELL-1,597,-6.59227,1.25,16.7475,ASSEMBLY_SHELL-1_ALLEL,TI,"shell < TI > < 5 section points > : SPOS, (fraction = 1.0)",119.909
C:/Users/srbb21/AppData/Local/Temp/rx18_gr30001521653382.841.odb,RELAX,Increment    105: Step Time =    1.000,SHELL-1,598,-6.59227,1.75,16.7475,ASSEMBLY_SHELL-1_ALLEL,TI,"shell < TI > < 5 section points > : SPOS, (fraction = 1.0)",119.736
C:/Users/srbb21/AppData/Local/Temp/rx18_gr30001521653382.841.odb,RELAX,Increment    105: Step Time =    1.000,SHELL-1,598,-6.59227,1.75,16.7475,ASSEMBLY_SHELL-1_ALLEL,TI,"shell < TI > < 5 section points > : SNEG, (fraction = -1.0)",132.244
C:/Users/srbb21/AppData/Local/Temp/rx18_gr30001521653382.841.odb,RELAX,Increment    105: Step Time =    1.000,SHELL-1,599,-6.59227,2.25,16.7475,ASSEMBLY_SHELL-1_ALLEL,TI,"shell < TI > < 5 section points > : SPOS, (fraction = 1.0)",119.561
C:/Users/srbb21/AppData/Local/Temp/rx18_gr30001521653382.841.odb,RELAX,Increment    105: Step Time =    1.000,SHELL-1,599,-6.59227,2.25,16.7475,ASSEMBLY_SHELL-1_ALLEL,TI,"shell < TI > < 5 section points > : SNEG, (fraction = -1.0)",132.216
C:/Users/srbb21/AppData/Local/Temp/rx18_gr30001521653382.841.odb,RELAX,Increment    105: Step Time =    1.000,SHELL-1,600,-6.59227,2.75,16.7475,ASSEMBLY_SHELL-1_ALLEL,TI,"shell < TI > < 5 section points > : SPOS, (fraction = 1.0)",119.43
C:/Users/srbb21/AppData/Local/Temp/rx18_gr30001521653382.841.odb,RELAX,Increment    105: Step Time =    1.000,SHELL-1,600,-6.59227,2.75,16.7475,ASSEMBLY_SHELL-1_ALLEL,TI,"shell < TI > < 5 section points > : SNEG, (fraction = -1.0)",132.098
C:/Users/srbb21/AppData/Local/Temp/rx18_gr30001521653382.841.odb,RELAX,Increment    105: Step Time =    1.000,SHELL-1,601,-6.59227,3.25,16.7475,ASSEMBLY_SHELL-1_ALLEL,TI,"shell < TI > < 5 section points > : SNEG, (fraction = -1.0)",131.834
C:/Users/srbb21/AppData/Local/Temp/rx18_gr30001521653382.841.odb,RELAX,Increment    105: Step Time =    1.000,SHELL-1,601,-6.59227,3.25,16.7475,ASSEMBLY_SHELL-1_ALLEL,TI,"shell < TI > < 5 section points > : SPOS, (fraction = 1.0)",119.398
C:/Users/srbb21/AppData/Local/Temp/rx18_gr30001521653382.841.odb,RELAX,Increment    105: Step Time =    1.000,SHELL-1,602,-6.59227,3.75,16.7475,ASSEMBLY_SHELL-1_ALLEL,TI,"shell < TI > < 5 section points > : SPOS, (fraction = 1.0)",119.526
C:/Users/srbb21/AppData/Local/Temp/rx18_gr30001521653382.841.odb,RELAX,Increment    105: Step Time =    1.000,SHELL-1,602,-6.59227,3.75,16.7475,ASSEMBLY_SHELL-1_ALLEL,TI,"shell < TI > < 5 section points > : SNEG, (fraction = -1.0)",131.356
C:/Users/srbb21/AppData/Local/Temp/rx18_gr30001521653382.841.odb,RELAX,Increment    105: Step Time =    1.000,SHELL-1,603,-6.59227,4.25,16.7475,ASSEMBLY_SHELL-1_ALLEL,TI,"shell < TI > < 5 section points > : SPOS, (fraction = 1.0)",119.879
C:/Users/srbb21/AppData/Local/Temp/rx18_gr30001521653382.841.odb,RELAX,Increment    105: Step Time =    1.000,SHELL-1,603,-6.59227,4.25,16.7475,ASSEMBLY_SHELL-1_ALLEL,TI,"shell < TI > < 5 section points > : SNEG, (fraction = -1.0)",130.587
C:/Users/srbb21/AppData/Local/Temp/rx18_gr30001521653382.841.odb,RELAX,Increment    105: Step Time =    1.000,SHELL-1,604,-6.59227,4.75,16.7475,ASSEMBLY_SHELL-1_ALLEL,TI,"shell < TI > < 5 section points > : SPOS, (fraction = 1.0)",120.526
C:/Users/srbb21/AppData/Local/Temp/rx18_gr30001521653382.841.odb,RELAX,Increment    105: Step Time =    1.000,SHELL-1,604,-6.59227,4.75,16.7475,ASSEMBLY_SHELL-1_ALLEL,TI,"shell < TI > < 5 section points > : SNEG, (fraction = -1.0)",129.443
C:/Users/srbb21/AppData/Local/Temp/rx18_gr30001521653382.841.odb,RELAX,Increment    105: Step Time =    1.000,SHELL-1,605,-6.59227,5.25,16.7475,ASSEMBLY_SHELL-1_ALLEL,TI,"shell < TI > < 5 section points > : SNEG, (fraction = -1.0)",127.843
C:/Users/srbb21/AppData/Local/Temp/rx18_gr30001521653382.841.odb,RELAX,Increment    105: Step Time =    1.000,SHELL-1,605,-6.59227,5.25,16.7475,ASSEMBLY_SHELL-1_ALLEL,TI,"shell < TI > < 5 section points > : SPOS, (fraction = 1.0)",121.533
C:/Users/srbb21/AppData/Local/Temp/rx18_gr30001521653382.841.odb,RELAX,Increment    105: Step Time =    1.000,SHELL-1,606,-6.59227,5.75,16.7475,ASSEMBLY_SHELL-1_ALLEL,TI,"shell < TI > < 5 section points > : SPOS, (fraction = 1.0)",122.96
C:/Users/srbb21/AppData/Local/Temp/rx18_gr30001521653382.841.odb,RELAX,Increment    105: Step Time =    1.000,SHELL-1,606,-6.59227,5.75,16.7475,ASSEMBLY_SHELL-1_ALLEL,TI,"shell < TI > < 5 section points > : SNEG, (fraction = -1.0)",125.71
C:/Users/srbb21/AppData/Local/Temp/rx18_gr30001521653382.841.odb,RELAX,Increment    105: Step Time =    1.000,SHELL-1,607,-6.59227,6.25,16.7475,ASSEMBLY_SHELL-1_ALLEL,TI,"shell < TI > < 5 section points > : SPOS, (fraction = 1.0)",124.86
C:/Users/srbb21/AppData/Local/Temp/rx18_gr30001521653382.841.odb,RELAX,Increment    105: Step Time =    1.000,SHELL-1,607,-6.59227,6.25,16.7475,ASSEMBLY_SHELL-1_ALLEL,TI,"shell < TI > < 5 section points > : SNEG, (fraction = -1.0)",122.988
C:/Users/srbb21/AppData/Local/Temp/rx18_gr30001521653382.841.odb,RELAX,Increment    105: Step Time =    1.000,SHELL-1,608,-6.59227,6.75,16.7475,ASSEMBLY_SHELL-1_ALLEL,TI,"shell < TI > < 5 section points > : SPOS, (fraction = 1.0)",127.262
C:/Users/srbb21/AppData/Local/Temp/rx18_gr30001521653382.841.odb,RELAX,Increment    105: Step Time =    1.000,SHELL-1,608,-6.59227,6.75,16.7475,ASSEMBLY_SHELL-1_ALLEL,TI,"shell < TI > < 5 section points > : SNEG, (fraction = -1.0)",119.65
C:/Users/srbb21/AppData/Local/Temp/rx18_gr30001521653382.841.odb,RELAX,Increment    105: Step Time =    1.000,SHELL-1,609,-6.59227,7.25,16.7475,ASSEMBLY_SHELL-1_ALLEL,TI,"shell < TI > < 5 section points > : SNEG, (fraction = -1.0)",115.709
C:/Users/srbb21/AppData/Local/Temp/rx18_gr30001521653382.841.odb,RELAX,Increment    105: Step Time =    1.000,SHELL-1,609,-6.59227,7.25,16.7475,ASSEMBLY_SHELL-1_ALLEL,TI,"shell < TI > < 5 section points > : SPOS, (fraction = 1.0)",130.17
C:/Users/srbb21/AppData/Local/Temp/rx18_gr30001521653382.841.odb,RELAX,Increment    105: Step Time =    1.000,SHELL-1,610,-6.59227,7.75,16.7475,ASSEMBLY_SHELL-1_ALLEL,TI,"shell < TI > < 5 section points > : SPOS, (fraction = 1.0)",133.551
C:/Users/srbb21/AppData/Local/Temp/rx18_gr30001521653382.841.odb,RELAX,Increment    105: Step Time =    1.000,SHELL-1,610,-6.59227,7.75,16.7475,ASSEMBLY_SHELL-1_ALLEL,TI,"shell < TI > < 5 section points > : SNEG, (fraction = -1.0)",111.233
C:/Users/srbb21/AppData/Local/Temp/rx18_gr30001521653382.841.odb,RELAX,Increment    105: Step Time =    1.000,SHELL-1,611,-6.59227,8.25,16.7475,ASSEMBLY_SHELL-1_ALLEL,TI,"shell < TI > < 5 section points > : SPOS, (fraction = 1.0)",137.322
C:/Users/srbb21/AppData/Local/Temp/rx18_gr30001521653382.841.odb,RELAX,Increment    105: Step Time =    1.000,SHELL-1,611,-6.59227,8.25,16.7475,ASSEMBLY_SHELL-1_ALLEL,TI,"shell < TI > < 5 section points > : SNEG, (fraction = -1.0)",106.35
C:/Users/srbb21/AppData/Local/Temp/rx18_gr30001521653382.841.odb,RELAX,Increment    105: Step Time =    1.000,SHELL-1,612,-6.59227,8.75,16.7475,ASSEMBLY_SHELL-1_ALLEL,TI,"shell < TI > < 5 section points > : SPOS, (fraction = 1.0)",141.361
C:/Users/srbb21/AppData/Local/Temp/rx18_gr30001521653382.841.odb,RELAX,Increment    105: Step Time =    1.000,SHELL-1,612,-6.59227,8.75,16.7475,ASSEMBLY_SHELL-1_ALLEL,TI,"shell < TI > < 5 section points > : SNEG, (fraction = -1.0)",101.252
C:/Users/srbb21/AppData/Local/Temp/rx18_gr30001521653382.841.odb,RELAX,Increment    105: Step Time =    1.000,SHELL-1,613,-6.12458,-8.75,16.9242,ASSEMBLY_SHELL-1_ALLEL,TI,"shell < TI > < 5 section points > : SPOS, (fraction = 1.0)",140.907
C:/Users/srbb21/AppData/Local/Temp/rx18_gr30001521653382.841.odb,RELAX,Increment    105: Step Time =    1.000,SHELL-1,613,-6.12458,-8.75,16.9242,ASSEMBLY_SHELL-1_ALLEL,TI,"shell < TI > < 5 section points > : SNEG, (fraction = -1.0)",102.309
C:/Users/srbb21/AppData/Local/Temp/rx18_gr30001521653382.841.odb,RELAX,Increment    105: Step Time =    1.000,SHELL-1,614,-6.12458,-8.25,16.9242,ASSEMBLY_SHELL-1_ALLEL,TI,"shell < TI > < 5 section points > : SNEG, (fraction = -1.0)",107.004
C:/Users/srbb21/AppData/Local/Temp/rx18_gr30001521653382.841.odb,RELAX,Increment    105: Step Time =    1.000,SHELL-1,614,-6.12458,-8.25,16.9242,ASSEMBLY_SHELL-1_ALLEL,TI,"shell < TI > < 5 section points > : SPOS, (fraction = 1.0)",137.165
C:/Users/srbb21/AppData/Local/Temp/rx18_gr30001521653382.841.odb,RELAX,Increment    105: Step Time =    1.000,SHELL-1,615,-6.12458,-7.75,16.9242,ASSEMBLY_SHELL-1_ALLEL,TI,"shell < TI > < 5 section points > : SPOS, (fraction = 1.0)",133.665
C:/Users/srbb21/AppData/Local/Temp/rx18_gr30001521653382.841.odb,RELAX,Increment    105: Step Time =    1.000,SHELL-1,615,-6.12458,-7.75,16.9242,ASSEMBLY_SHELL-1_ALLEL,TI,"shell < TI > < 5 section points > : SNEG, (fraction = -1.0)",111.49
C:/Users/srbb21/AppData/Local/Temp/rx18_gr30001521653382.841.odb,RELAX,Increment    105: Step Time =    1.000,SHELL-1,616,-6.12458,-7.25,16.9242,ASSEMBLY_SHELL-1_ALLEL,TI,"shell < TI > < 5 section points > : SPOS, (fraction = 1.0)",130.49
C:/Users/srbb21/AppData/Local/Temp/rx18_gr30001521653382.841.odb,RELAX,Increment    105: Step Time =    1.000,SHELL-1,616,-6.12458,-7.25,16.9242,ASSEMBLY_SHELL-1_ALLEL,TI,"shell < TI > < 5 section points > : SNEG, (fraction = -1.0)",115.624
C:/Users/srbb21/AppData/Local/Temp/rx18_gr30001521653382.841.odb,RELAX,Increment    105: Step Time =    1.000,SHELL-1,617,-6.12458,-6.75,16.9242,ASSEMBLY_SHELL-1_ALLEL,TI,"shell < TI > < 5 section points > : SPOS, (fraction = 1.0)",127.708
C:/Users/srbb21/AppData/Local/Temp/rx18_gr30001521653382.841.odb,RELAX,Increment    105: Step Time =    1.000,SHELL-1,617,-6.12458,-6.75,16.9242,ASSEMBLY_SHELL-1_ALLEL,TI,"shell < TI > < 5 section points > : SNEG, (fraction = -1.0)",119.297
C:/Users/srbb21/AppData/Local/Temp/rx18_gr30001521653382.841.odb,RELAX,Increment    105: Step Time =    1.000,SHELL-1,618,-6.12458,-6.25,16.9242,ASSEMBLY_SHELL-1_ALLEL,TI,"shell < TI > < 5 section points > : SNEG, (fraction = -1.0)",122.45
C:/Users/srbb21/AppData/Local/Temp/rx18_gr30001521653382.841.odb,RELAX,Increment    105: Step Time =    1.000,SHELL-1,618,-6.12458,-6.25,16.9242,ASSEMBLY_SHELL-1_ALLEL,TI,"shell < TI > < 5 section points > : SPOS, (fraction = 1.0)",125.345
C:/Users/srbb21/AppData/Local/Temp/rx18_gr30001521653382.841.odb,RELAX,Increment    105: Step Time =    1.000,SHELL-1,619,-6.12458,-5.75,16.9242,ASSEMBLY_SHELL-1_ALLEL,TI,"shell < TI > < 5 section points > : SPOS, (fraction = 1.0)",123.406
C:/Users/srbb21/AppData/Local/Temp/rx18_gr30001521653382.841.odb,RELAX,Increment    105: Step Time =    1.000,SHELL-1,619,-6.12458,-5.75,16.9242,ASSEMBLY_SHELL-1_ALLEL,TI,"shell < TI > < 5 section points > : SNEG, (fraction = -1.0)",125.061
C:/Users/srbb21/AppData/Local/Temp/rx18_gr30001521653382.841.odb,RELAX,Increment    105: Step Time =    1.000,SHELL-1,620,-6.12458,-5.25,16.9242,ASSEMBLY_SHELL-1_ALLEL,TI,"shell < TI > < 5 section points > : SPOS, (fraction = 1.0)",121.873
C:/Users/srbb21/AppData/Local/Temp/rx18_gr30001521653382.841.odb,RELAX,Increment    105: Step Time =    1.000,SHELL-1,620,-6.12458,-5.25,16.9242,ASSEMBLY_SHELL-1_ALLEL,TI,"shell < TI > < 5 section points > : SNEG, (fraction = -1.0)",127.145
C:/Users/srbb21/AppData/Local/Temp/rx18_gr30001521653382.841.odb,RELAX,Increment    105: Step Time =    1.000,SHELL-1,621,-6.12458,-4.75,16.9242,ASSEMBLY_SHELL-1_ALLEL,TI,"shell < TI > < 5 section points > : SPOS, (fraction = 1.0)",120.712
C:/Users/srbb21/AppData/Local/Temp/rx18_gr30001521653382.841.odb,RELAX,Increment    105: Step Time =    1.000,SHELL-1,621,-6.12458,-4.75,16.9242,ASSEMBLY_SHELL-1_ALLEL,TI,"shell < TI > < 5 section points > : SNEG, (fraction = -1.0)",128.745
C:/Users/srbb21/AppData/Local/Temp/rx18_gr30001521653382.841.odb,RELAX,Increment    105: Step Time =    1.000,SHELL-1,622,-6.12458,-4.25,16.9242,ASSEMBLY_SHELL-1_ALLEL,TI,"shell < TI > < 5 section points > : SNEG, (fraction = -1.0)",129.921
C:/Users/srbb21/AppData/Local/Temp/rx18_gr30001521653382.841.odb,RELAX,Increment    105: Step Time =    1.000,SHELL-1,622,-6.12458,-4.25,16.9242,ASSEMBLY_SHELL-1_ALLEL,TI,"shell < TI > < 5 section points > : SPOS, (fraction = 1.0)",119.878
C:/Users/srbb21/AppData/Local/Temp/rx18_gr30001521653382.841.odb,RELAX,Increment    105: Step Time =    1.000,SHELL-1,623,-6.12458,-3.75,16.9242,ASSEMBLY_SHELL-1_ALLEL,TI,"shell < TI > < 5 section points > : SPOS, (fraction = 1.0)",119.321
C:/Users/srbb21/AppData/Local/Temp/rx18_gr30001521653382.841.odb,RELAX,Increment    105: Step Time =    1.000,SHELL-1,623,-6.12458,-3.75,16.9242,ASSEMBLY_SHELL-1_ALLEL,TI,"shell < TI > < 5 section points > : SNEG, (fraction = -1.0)",130.74
C:/Users/srbb21/AppData/Local/Temp/rx18_gr30001521653382.841.odb,RELAX,Increment    105: Step Time =    1.000,SHELL-1,624,-6.12458,-3.25,16.9242,ASSEMBLY_SHELL-1_ALLEL,TI,"shell < TI > < 5 section points > : SPOS, (fraction = 1.0)",118.988
C:/Users/srbb21/AppData/Local/Temp/rx18_gr30001521653382.841.odb,RELAX,Increment    105: Step Time =    1.000,SHELL-1,624,-6.12458,-3.25,16.9242,ASSEMBLY_SHELL-1_ALLEL,TI,"shell < TI > < 5 section points > : SNEG, (fraction = -1.0)",131.276
C:/Users/srbb21/AppData/Local/Temp/rx18_gr30001521653382.841.odb,RELAX,Increment    105: Step Time =    1.000,SHELL-1,625,-6.12458,-2.75,16.9242,ASSEMBLY_SHELL-1_ALLEL,TI,"shell < TI > < 5 section points > : SPOS, (fraction = 1.0)",118.825
C:/Users/srbb21/AppData/Local/Temp/rx18_gr30001521653382.841.odb,RELAX,Increment    105: Step Time =    1.000,SHELL-1,625,-6.12458,-2.75,16.9242,ASSEMBLY_SHELL-1_ALLEL,TI,"shell < TI > < 5 section points > : SNEG, (fraction = -1.0)",131.599
C:/Users/srbb21/AppData/Local/Temp/rx18_gr30001521653382.841.odb,RELAX,Increment    105: Step Time =    1.000,SHELL-1,626,-6.12458,-2.25,16.9242,ASSEMBLY_SHELL-1_ALLEL,TI,"shell < TI > < 5 section points > : SNEG, (fraction = -1.0)",131.768
C:/Users/srbb21/AppData/Local/Temp/rx18_gr30001521653382.841.odb,RELAX,Increment    105: Step Time =    1.000,SHELL-1,626,-6.12458,-2.25,16.9242,ASSEMBLY_SHELL-1_ALLEL,TI,"shell < TI > < 5 section points > : SPOS, (fraction = 1.0)",118.78
C:/Users/srbb21/AppData/Local/Temp/rx18_gr30001521653382.841.odb,RELAX,Increment    105: Step Time =    1.000,SHELL-1,627,-6.12458,-1.75,16.9242,ASSEMBLY_SHELL-1_ALLEL,TI,"shell < TI > < 5 section points > : SPOS, (fraction = 1.0)",118.807
C:/Users/srbb21/AppData/Local/Temp/rx18_gr30001521653382.841.odb,RELAX,Increment    105: Step Time =    1.000,SHELL-1,627,-6.12458,-1.75,16.9242,ASSEMBLY_SHELL-1_ALLEL,TI,"shell < TI > < 5 section points > : SNEG, (fraction = -1.0)",131.84
C:/Users/srbb21/AppData/Local/Temp/rx18_gr30001521653382.841.odb,RELAX,Increment    105: Step Time =    1.000,SHELL-1,628,-6.12458,-1.25,16.9242,ASSEMBLY_SHELL-1_ALLEL,TI,"shell < TI > < 5 section points > : SPOS, (fraction = 1.0)",118.865
C:/Users/srbb21/AppData/Local/Temp/rx18_gr30001521653382.841.odb,RELAX,Increment    105: Step Time =    1.000,SHELL-1,628,-6.12458,-1.25,16.9242,ASSEMBLY_SHELL-1_ALLEL,TI,"shell < TI > < 5 section points > : SNEG, (fraction = -1.0)",131.857
C:/Users/srbb21/AppData/Local/Temp/rx18_gr30001521653382.841.odb,RELAX,Increment    105: Step Time =    1.000,SHELL-1,629,-6.12458,-0.75,16.9242,ASSEMBLY_SHELL-1_ALLEL,TI,"shell < TI > < 5 section points > : SPOS, (fraction = 1.0)",118.922
C:/Users/srbb21/AppData/Local/Temp/rx18_gr30001521653382.841.odb,RELAX,Increment    105: Step Time =    1.000,SHELL-1,629,-6.12458,-0.75,16.9242,ASSEMBLY_SHELL-1_ALLEL,TI,"shell < TI > < 5 section points > : SNEG, (fraction = -1.0)",131.85
C:/Users/srbb21/AppData/Local/Temp/rx18_gr30001521653382.841.odb,RELAX,Increment    105: Step Time =    1.000,SHELL-1,630,-6.12458,-0.25,16.9242,ASSEMBLY_SHELL-1_ALLEL,TI,"shell < TI > < 5 section points > : SPOS, (fraction = 1.0)",118.956
C:/Users/srbb21/AppData/Local/Temp/rx18_gr30001521653382.841.odb,RELAX,Increment    105: Step Time =    1.000,SHELL-1,630,-6.12458,-0.25,16.9242,ASSEMBLY_SHELL-1_ALLEL,TI,"shell < TI > < 5 section points > : SNEG, (fraction = -1.0)",131.841
C:/Users/srbb21/AppData/Local/Temp/rx18_gr30001521653382.841.odb,RELAX,Increment    105: Step Time =    1.000,SHELL-1,631,-6.12458,0.25,16.9242,ASSEMBLY_SHELL-1_ALLEL,TI,"shell < TI > < 5 section points > : SNEG, (fraction = -1.0)",131.841
C:/Users/srbb21/AppData/Local/Temp/rx18_gr30001521653382.841.odb,RELAX,Increment    105: Step Time =    1.000,SHELL-1,631,-6.12458,0.25,16.9242,ASSEMBLY_SHELL-1_ALLEL,TI,"shell < TI > < 5 section points > : SPOS, (fraction = 1.0)",118.956
C:/Users/srbb21/AppData/Local/Temp/rx18_gr30001521653382.841.odb,RELAX,Increment    105: Step Time =    1.000,SHELL-1,632,-6.12458,0.75,16.9242,ASSEMBLY_SHELL-1_ALLEL,TI,"shell < TI > < 5 section points > : SPOS, (fraction = 1.0)",118.922
C:/Users/srbb21/AppData/Local/Temp/rx18_gr30001521653382.841.odb,RELAX,Increment    105: Step Time =    1.000,SHELL-1,632,-6.12458,0.75,16.9242,ASSEMBLY_SHELL-1_ALLEL,TI,"shell < TI > < 5 section points > : SNEG, (fraction = -1.0)",131.85
C:/Users/srbb21/AppData/Local/Temp/rx18_gr30001521653382.841.odb,RELAX,Increment    105: Step Time =    1.000,SHELL-1,633,-6.12458,1.25,16.9242,ASSEMBLY_SHELL-1_ALLEL,TI,"shell < TI > < 5 section points > : SPOS, (fraction = 1.0)",118.865
C:/Users/srbb21/AppData/Local/Temp/rx18_gr30001521653382.841.odb,RELAX,Increment    105: Step Time =    1.000,SHELL-1,633,-6.12458,1.25,16.9242,ASSEMBLY_SHELL-1_ALLEL,TI,"shell < TI > < 5 section points > : SNEG, (fraction = -1.0)",131.857
C:/Users/srbb21/AppData/Local/Temp/rx18_gr30001521653382.841.odb,RELAX,Increment    105: Step Time =    1.000,SHELL-1,634,-6.12458,1.75,16.9242,ASSEMBLY_SHELL-1_ALLEL,TI,"shell < TI > < 5 section points > : SPOS, (fraction = 1.0)",118.807
C:/Users/srbb21/AppData/Local/Temp/rx18_gr30001521653382.841.odb,RELAX,Increment    105: Step Time =    1.000,SHELL-1,634,-6.12458,1.75,16.9242,ASSEMBLY_SHELL-1_ALLEL,TI,"shell < TI > < 5 section points > : SNEG, (fraction = -1.0)",131.84
C:/Users/srbb21/AppData/Local/Temp/rx18_gr30001521653382.841.odb,RELAX,Increment    105: Step Time =    1.000,SHELL-1,635,-6.12458,2.25,16.9242,ASSEMBLY_SHELL-1_ALLEL,TI,"shell < TI > < 5 section points > : SNEG, (fraction = -1.0)",131.768
C:/Users/srbb21/AppData/Local/Temp/rx18_gr30001521653382.841.odb,RELAX,Increment    105: Step Time =    1.000,SHELL-1,635,-6.12458,2.25,16.9242,ASSEMBLY_SHELL-1_ALLEL,TI,"shell < TI > < 5 section points > : SPOS, (fraction = 1.0)",118.78
C:/Users/srbb21/AppData/Local/Temp/rx18_gr30001521653382.841.odb,RELAX,Increment    105: Step Time =    1.000,SHELL-1,636,-6.12458,2.75,16.9242,ASSEMBLY_SHELL-1_ALLEL,TI,"shell < TI > < 5 section points > : SPOS, (fraction = 1.0)",118.825
C:/Users/srbb21/AppData/Local/Temp/rx18_gr30001521653382.841.odb,RELAX,Increment    105: Step Time =    1.000,SHELL-1,636,-6.12458,2.75,16.9242,ASSEMBLY_SHELL-1_ALLEL,TI,"shell < TI > < 5 section points > : SNEG, (fraction = -1.0)",131.599
C:/Users/srbb21/AppData/Local/Temp/rx18_gr30001521653382.841.odb,RELAX,Increment    105: Step Time =    1.000,SHELL-1,637,-6.12458,3.25,16.9242,ASSEMBLY_SHELL-1_ALLEL,TI,"shell < TI > < 5 section points > : SPOS, (fraction = 1.0)",118.988
C:/Users/srbb21/AppData/Local/Temp/rx18_gr30001521653382.841.odb,RELAX,Increment    105: Step Time =    1.000,SHELL-1,637,-6.12458,3.25,16.9242,ASSEMBLY_SHELL-1_ALLEL,TI,"shell < TI > < 5 section points > : SNEG, (fraction = -1.0)",131.276
C:/Users/srbb21/AppData/Local/Temp/rx18_gr30001521653382.841.odb,RELAX,Increment    105: Step Time =    1.000,SHELL-1,638,-6.12458,3.75,16.9242,ASSEMBLY_SHELL-1_ALLEL,TI,"shell < TI > < 5 section points > : SPOS, (fraction = 1.0)",119.321
C:/Users/srbb21/AppData/Local/Temp/rx18_gr30001521653382.841.odb,RELAX,Increment    105: Step Time =    1.000,SHELL-1,638,-6.12458,3.75,16.9242,ASSEMBLY_SHELL-1_ALLEL,TI,"shell < TI > < 5 section points > : SNEG, (fraction = -1.0)",130.74
C:/Users/srbb21/AppData/Local/Temp/rx18_gr30001521653382.841.odb,RELAX,Increment    105: Step Time =    1.000,SHELL-1,639,-6.12458,4.25,16.9242,ASSEMBLY_SHELL-1_ALLEL,TI,"shell < TI > < 5 section points > : SNEG, (fraction = -1.0)",129.921
C:/Users/srbb21/AppData/Local/Temp/rx18_gr30001521653382.841.odb,RELAX,Increment    105: Step Time =    1.000,SHELL-1,639,-6.12458,4.25,16.9242,ASSEMBLY_SHELL-1_ALLEL,TI,"shell < TI > < 5 section points > : SPOS, (fraction = 1.0)",119.878
C:/Users/srbb21/AppData/Local/Temp/rx18_gr30001521653382.841.odb,RELAX,Increment    105: Step Time =    1.000,SHELL-1,640,-6.12458,4.75,16.9242,ASSEMBLY_SHELL-1_ALLEL,TI,"shell < TI > < 5 section points > : SPOS, (fraction = 1.0)",120.712
C:/Users/srbb21/AppData/Local/Temp/rx18_gr30001521653382.841.odb,RELAX,Increment    105: Step Time =    1.000,SHELL-1,640,-6.12458,4.75,16.9242,ASSEMBLY_SHELL-1_ALLEL,TI,"shell < TI > < 5 section points > : SNEG, (fraction = -1.0)",128.745
C:/Users/srbb21/AppData/Local/Temp/rx18_gr30001521653382.841.odb,RELAX,Increment    105: Step Time =    1.000,SHELL-1,641,-6.12458,5.25,16.9242,ASSEMBLY_SHELL-1_ALLEL,TI,"shell < TI > < 5 section points > : SPOS, (fraction = 1.0)",121.873
C:/Users/srbb21/AppData/Local/Temp/rx18_gr30001521653382.841.odb,RELAX,Increment    105: Step Time =    1.000,SHELL-1,641,-6.12458,5.25,16.9242,ASSEMBLY_SHELL-1_ALLEL,TI,"shell < TI > < 5 section points > : SNEG, (fraction = -1.0)",127.145
C:/Users/srbb21/AppData/Local/Temp/rx18_gr30001521653382.841.odb,RELAX,Increment    105: Step Time =    1.000,SHELL-1,642,-6.12458,5.75,16.9242,ASSEMBLY_SHELL-1_ALLEL,TI,"shell < TI > < 5 section points > : SPOS, (fraction = 1.0)",123.406
C:/Users/srbb21/AppData/Local/Temp/rx18_gr30001521653382.841.odb,RELAX,Increment    105: Step Time =    1.000,SHELL-1,642,-6.12458,5.75,16.9242,ASSEMBLY_SHELL-1_ALLEL,TI,"shell < TI > < 5 section points > : SNEG, (fraction = -1.0)",125.061
C:/Users/srbb21/AppData/Local/Temp/rx18_gr30001521653382.841.odb,RELAX,Increment    105: Step Time =    1.000,SHELL-1,643,-6.12458,6.25,16.9242,ASSEMBLY_SHELL-1_ALLEL,TI,"shell < TI > < 5 section points > : SNEG, (fraction = -1.0)",122.45
C:/Users/srbb21/AppData/Local/Temp/rx18_gr30001521653382.841.odb,RELAX,Increment    105: Step Time =    1.000,SHELL-1,643,-6.12458,6.25,16.9242,ASSEMBLY_SHELL-1_ALLEL,TI,"shell < TI > < 5 section points > : SPOS, (fraction = 1.0)",125.345
C:/Users/srbb21/AppData/Local/Temp/rx18_gr30001521653382.841.odb,RELAX,Increment    105: Step Time =    1.000,SHELL-1,644,-6.12458,6.75,16.9242,ASSEMBLY_SHELL-1_ALLEL,TI,"shell < TI > < 5 section points > : SPOS, (fraction = 1.0)",127.708
C:/Users/srbb21/AppData/Local/Temp/rx18_gr30001521653382.841.odb,RELAX,Increment    105: Step Time =    1.000,SHELL-1,644,-6.12458,6.75,16.9242,ASSEMBLY_SHELL-1_ALLEL,TI,"shell < TI > < 5 section points > : SNEG, (fraction = -1.0)",119.297
C:/Users/srbb21/AppData/Local/Temp/rx18_gr30001521653382.841.odb,RELAX,Increment    105: Step Time =    1.000,SHELL-1,645,-6.12458,7.25,16.9242,ASSEMBLY_SHELL-1_ALLEL,TI,"shell < TI > < 5 section points > : SPOS, (fraction = 1.0)",130.49
C:/Users/srbb21/AppData/Local/Temp/rx18_gr30001521653382.841.odb,RELAX,Increment    105: Step Time =    1.000,SHELL-1,645,-6.12458,7.25,16.9242,ASSEMBLY_SHELL-1_ALLEL,TI,"shell < TI > < 5 section points > : SNEG, (fraction = -1.0)",115.624
C:/Users/srbb21/AppData/Local/Temp/rx18_gr30001521653382.841.odb,RELAX,Increment    105: Step Time =    1.000,SHELL-1,646,-6.12458,7.75,16.9242,ASSEMBLY_SHELL-1_ALLEL,TI,"shell < TI > < 5 section points > : SPOS, (fraction = 1.0)",133.665
C:/Users/srbb21/AppData/Local/Temp/rx18_gr30001521653382.841.odb,RELAX,Increment    105: Step Time =    1.000,SHELL-1,646,-6.12458,7.75,16.9242,ASSEMBLY_SHELL-1_ALLEL,TI,"shell < TI > < 5 section points > : SNEG, (fraction = -1.0)",111.49
C:/Users/srbb21/AppData/Local/Temp/rx18_gr30001521653382.841.odb,RELAX,Increment    105: Step Time =    1.000,SHELL-1,647,-6.12458,8.25,16.9242,ASSEMBLY_SHELL-1_ALLEL,TI,"shell < TI > < 5 section points > : SPOS, (fraction = 1.0)",137.165
C:/Users/srbb21/AppData/Local/Temp/rx18_gr30001521653382.841.odb,RELAX,Increment    105: Step Time =    1.000,SHELL-1,647,-6.12458,8.25,16.9242,ASSEMBLY_SHELL-1_ALLEL,TI,"shell < TI > < 5 section points > : SNEG, (fraction = -1.0)",107.004
C:/Users/srbb21/AppData/Local/Temp/rx18_gr30001521653382.841.odb,RELAX,Increment    105: Step Time =    1.000,SHELL-1,648,-6.12458,8.75,16.9242,ASSEMBLY_SHELL-1_ALLEL,TI,"shell < TI > < 5 section points > : SNEG, (fraction = -1.0)",102.309
C:/Users/srbb21/AppData/Local/Temp/rx18_gr30001521653382.841.odb,RELAX,Increment    105: Step Time =    1.000,SHELL-1,648,-6.12458,8.75,16.9242,ASSEMBLY_SHELL-1_ALLEL,TI,"shell < TI > < 5 section points > : SPOS, (fraction = 1.0)",140.907
C:/Users/srbb21/AppData/Local/Temp/rx18_gr30001521653382.841.odb,RELAX,Increment    105: Step Time =    1.000,SHELL-1,649,-5.65216,-8.75,17.0877,ASSEMBLY_SHELL-1_ALLEL,TI,"shell < TI > < 5 section points > : SPOS, (fraction = 1.0)",140.569
C:/Users/srbb21/AppData/Local/Temp/rx18_gr30001521653382.841.odb,RELAX,Increment    105: Step Time =    1.000,SHELL-1,649,-5.65216,-8.75,17.0877,ASSEMBLY_SHELL-1_ALLEL,TI,"shell < TI > < 5 section points > : SNEG, (fraction = -1.0)",103.181
C:/Users/srbb21/AppData/Local/Temp/rx18_gr30001521653382.841.odb,RELAX,Increment    105: Step Time =    1.000,SHELL-1,650,-5.65216,-8.25,17.0877,ASSEMBLY_SHELL-1_ALLEL,TI,"shell < TI > < 5 section points > : SPOS, (fraction = 1.0)",137.055
C:/Users/srbb21/AppData/Local/Temp/rx18_gr30001521653382.841.odb,RELAX,Increment    105: Step Time =    1.000,SHELL-1,650,-5.65216,-8.25,17.0877,ASSEMBLY_SHELL-1_ALLEL,TI,"shell < TI > < 5 section points > : SNEG, (fraction = -1.0)",107.557
C:/Users/srbb21/AppData/Local/Temp/rx18_gr30001521653382.841.odb,RELAX,Increment    105: Step Time =    1.000,SHELL-1,651,-5.65216,-7.75,17.0877,ASSEMBLY_SHELL-1_ALLEL,TI,"shell < TI > < 5 section points > : SPOS, (fraction = 1.0)",133.77
C:/Users/srbb21/AppData/Local/Temp/rx18_gr30001521653382.841.odb,RELAX,Increment    105: Step Time =    1.000,SHELL-1,651,-5.65216,-7.75,17.0877,ASSEMBLY_SHELL-1_ALLEL,TI,"shell < TI > < 5 section points > : SNEG, (fraction = -1.0)",111.725
C:/Users/srbb21/AppData/Local/Temp/rx18_gr30001521653382.841.odb,RELAX,Increment    105: Step Time =    1.000,SHELL-1,652,-5.65216,-7.25,17.0877,ASSEMBLY_SHELL-1_ALLEL,TI,"shell < TI > < 5 section points > : SNEG, (fraction = -1.0)",115.574
C:/Users/srbb21/AppData/Local/Temp/rx18_gr30001521653382.841.odb,RELAX,Increment    105: Step Time =    1.000,SHELL-1,652,-5.65216,-7.25,17.0877,ASSEMBLY_SHELL-1_ALLEL,TI,"shell < TI > < 5 section points > : SPOS, (fraction = 1.0)",130.771
C:/Users/srbb21/AppData/Local/Temp/rx18_gr30001521653382.841.odb,RELAX,Increment    105: Step Time =    1.000,SHELL-1,653,-5.65216,-6.75,17.0877,ASSEMBLY_SHELL-1_ALLEL,TI,"shell < TI > < 5 section points > : SPOS, (fraction = 1.0)",128.106
C:/Users/srbb21/AppData/Local/Temp/rx18_gr30001521653382.841.odb,RELAX,Increment    105: Step Time =    1.000,SHELL-1,653,-5.65216,-6.75,17.0877,ASSEMBLY_SHELL-1_ALLEL,TI,"shell < TI > < 5 section points > : SNEG, (fraction = -1.0)",119.021
C:/Users/srbb21/AppData/Local/Temp/rx18_gr30001521653382.841.odb,RELAX,Increment    105: Step Time =    1.000,SHELL-1,654,-5.65216,-6.25,17.0877,ASSEMBLY_SHELL-1_ALLEL,TI,"shell < TI > < 5 section points > : SPOS, (fraction = 1.0)",125.795
C:/Users/srbb21/AppData/Local/Temp/rx18_gr30001521653382.841.odb,RELAX,Increment    105: Step Time =    1.000,SHELL-1,654,-5.65216,-6.25,17.0877,ASSEMBLY_SHELL-1_ALLEL,TI,"shell < TI > < 5 section points > : SNEG, (fraction = -1.0)",122.011
C:/Users/srbb21/AppData/Local/Temp/rx18_gr30001521653382.841.odb,RELAX,Increment    105: Step Time =    1.000,SHELL-1,655,-5.65216,-5.75,17.0877,ASSEMBLY_SHELL-1_ALLEL,TI,"shell < TI > < 5 section points > : SPOS, (fraction = 1.0)",123.846
C:/Users/srbb21/AppData/Local/Temp/rx18_gr30001521653382.841.odb,RELAX,Increment    105: Step Time =    1.000,SHELL-1,655,-5.65216,-5.75,17.0877,ASSEMBLY_SHELL-1_ALLEL,TI,"shell < TI > < 5 section points > : SNEG, (fraction = -1.0)",124.523
C:/Users/srbb21/AppData/Local/Temp/rx18_gr30001521653382.841.odb,RELAX,Increment    105: Step Time =    1.000,SHELL-1,656,-5.65216,-5.25,17.0877,ASSEMBLY_SHELL-1_ALLEL,TI,"shell < TI > < 5 section points > : SNEG, (fraction = -1.0)",126.563
C:/Users/srbb21/AppData/Local/Temp/rx18_gr30001521653382.841.odb,RELAX,Increment    105: Step Time =    1.000,SHELL-1,656,-5.65216,-5.25,17.0877,ASSEMBLY_SHELL-1_ALLEL,TI,"shell < TI > < 5 section points > : SPOS, (fraction = 1.0)",122.246
C:/Users/srbb21/AppData/Local/Temp/rx18_gr30001521653382.841.odb,RELAX,Increment    105: Step Time =    1.000,SHELL-1,657,-5.65216,-4.75,17.0877,ASSEMBLY_SHELL-1_ALLEL,TI,"shell < TI > < 5 section points > : SPOS, (fraction = 1.0)",120.973
C:/Users/srbb21/AppData/Local/Temp/rx18_gr30001521653382.841.odb,RELAX,Increment    105: Step Time =    1.000,SHELL-1,657,-5.65216,-4.75,17.0877,ASSEMBLY_SHELL-1_ALLEL,TI,"shell < TI > < 5 section points > : SNEG, (fraction = -1.0)",128.162
C:/Users/srbb21/AppData/Local/Temp/rx18_gr30001521653382.841.odb,RELAX,Increment    105: Step Time =    1.000,SHELL-1,658,-5.65216,-4.25,17.0877,ASSEMBLY_SHELL-1_ALLEL,TI,"shell < TI > < 5 section points > : SPOS, (fraction = 1.0)",119.995
C:/Users/srbb21/AppData/Local/Temp/rx18_gr30001521653382.841.odb,RELAX,Increment    105: Step Time =    1.000,SHELL-1,658,-5.65216,-4.25,17.0877,ASSEMBLY_SHELL-1_ALLEL,TI,"shell < TI > < 5 section points > : SNEG, (fraction = -1.0)",129.367
C:/Users/srbb21/AppData/Local/Temp/rx18_gr30001521653382.841.odb,RELAX,Increment    105: Step Time =    1.000,SHELL-1,659,-5.65216,-3.75,17.0877,ASSEMBLY_SHELL-1_ALLEL,TI,"shell < TI > < 5 section points > : SPOS, (fraction = 1.0)",119.275
C:/Users/srbb21/AppData/Local/Temp/rx18_gr30001521653382.841.odb,RELAX,Increment    105: Step Time =    1.000,SHELL-1,659,-5.65216,-3.75,17.0877,ASSEMBLY_SHELL-1_ALLEL,TI,"shell < TI > < 5 section points > : SNEG, (fraction = -1.0)",130.236
C:/Users/srbb21/AppData/Local/Temp/rx18_gr30001521653382.841.odb,RELAX,Increment    105: Step Time =    1.000,SHELL-1,660,-5.65216,-3.25,17.0877,ASSEMBLY_SHELL-1_ALLEL,TI,"shell < TI > < 5 section points > : SNEG, (fraction = -1.0)",130.83
C:/Users/srbb21/AppData/Local/Temp/rx18_gr30001521653382.841.odb,RELAX,Increment    105: Step Time =    1.000,SHELL-1,660,-5.65216,-3.25,17.0877,ASSEMBLY_SHELL-1_ALLEL,TI,"shell < TI > < 5 section points > : SPOS, (fraction = 1.0)",118.77
C:/Users/srbb21/AppData/Local/Temp/rx18_gr30001521653382.841.odb,RELAX,Increment    105: Step Time =    1.000,SHELL-1,661,-5.65216,-2.75,17.0877,ASSEMBLY_SHELL-1_ALLEL,TI,"shell < TI > < 5 section points > : SPOS, (fraction = 1.0)",118.439
C:/Users/srbb21/AppData/Local/Temp/rx18_gr30001521653382.841.odb,RELAX,Increment    105: Step Time =    1.000,SHELL-1,661,-5.65216,-2.75,17.0877,ASSEMBLY_SHELL-1_ALLEL,TI,"shell < TI > < 5 section points > : SNEG, (fraction = -1.0)",131.212
C:/Users/srbb21/AppData/Local/Temp/rx18_gr30001521653382.841.odb,RELAX,Increment    105: Step Time =    1.000,SHELL-1,662,-5.65216,-2.25,17.0877,ASSEMBLY_SHELL-1_ALLEL,TI,"shell < TI > < 5 section points > : SPOS, (fraction = 1.0)",118.241
C:/Users/srbb21/AppData/Local/Temp/rx18_gr30001521653382.841.odb,RELAX,Increment    105: Step Time =    1.000,SHELL-1,662,-5.65216,-2.25,17.0877,ASSEMBLY_SHELL-1_ALLEL,TI,"shell < TI > < 5 section points > : SNEG, (fraction = -1.0)",131.438
C:/Users/srbb21/AppData/Local/Temp/rx18_gr30001521653382.841.odb,RELAX,Increment    105: Step Time =    1.000,SHELL-1,663,-5.65216,-1.75,17.0877,ASSEMBLY_SHELL-1_ALLEL,TI,"shell < TI > < 5 section points > : SPOS, (fraction = 1.0)",118.135
C:/Users/srbb21/AppData/Local/Temp/rx18_gr30001521653382.841.odb,RELAX,Increment    105: Step Time =    1.000,SHELL-1,663,-5.65216,-1.75,17.0877,ASSEMBLY_SHELL-1_ALLEL,TI,"shell < TI > < 5 section points > : SNEG, (fraction = -1.0)",131.557
C:/Users/srbb21/AppData/Local/Temp/rx18_gr30001521653382.841.odb,RELAX,Increment    105: Step Time =    1.000,SHELL-1,664,-5.65216,-1.25,17.0877,ASSEMBLY_SHELL-1_ALLEL,TI,"shell < TI > < 5 section points > : SNEG, (fraction = -1.0)",131.611
C:/Users/srbb21/AppData/Local/Temp/rx18_gr30001521653382.841.odb,RELAX,Increment    105: Step Time =    1.000,SHELL-1,664,-5.65216,-1.25,17.0877,ASSEMBLY_SHELL-1_ALLEL,TI,"shell < TI > < 5 section points > : SPOS, (fraction = 1.0)",118.088
C:/Users/srbb21/AppData/Local/Temp/rx18_gr30001521653382.841.odb,RELAX,Increment    105: Step Time =    1.000,SHELL-1,665,-5.65216,-0.75,17.0877,ASSEMBLY_SHELL-1_ALLEL,TI,"shell < TI > < 5 section points > : SPOS, (fraction = 1.0)",118.073
C:/Users/srbb21/AppData/Local/Temp/rx18_gr30001521653382.841.odb,RELAX,Increment    105: Step Time =    1.000,SHELL-1,665,-5.65216,-0.75,17.0877,ASSEMBLY_SHELL-1_ALLEL,TI,"shell < TI > < 5 section points > : SNEG, (fraction = -1.0)",131.629
C:/Users/srbb21/AppData/Local/Temp/rx18_gr30001521653382.841.odb,RELAX,Increment    105: Step Time =    1.000,SHELL-1,666,-5.65216,-0.25,17.0877,ASSEMBLY_SHELL-1_ALLEL,TI,"shell < TI > < 5 section points > : SPOS, (fraction = 1.0)",118.071
C:/Users/srbb21/AppData/Local/Temp/rx18_gr30001521653382.841.odb,RELAX,Increment    105: Step Time =    1.000,SHELL-1,666,-5.65216,-0.25,17.0877,ASSEMBLY_SHELL-1_ALLEL,TI,"shell < TI > < 5 section points > : SNEG, (fraction = -1.0)",131.633
C:/Users/srbb21/AppData/Local/Temp/rx18_gr30001521653382.841.odb,RELAX,Increment    105: Step Time =    1.000,SHELL-1,667,-5.65216,0.25,17.0877,ASSEMBLY_SHELL-1_ALLEL,TI,"shell < TI > < 5 section points > : SPOS, (fraction = 1.0)",118.071
C:/Users/srbb21/AppData/Local/Temp/rx18_gr30001521653382.841.odb,RELAX,Increment    105: Step Time =    1.000,SHELL-1,667,-5.65216,0.25,17.0877,ASSEMBLY_SHELL-1_ALLEL,TI,"shell < TI > < 5 section points > : SNEG, (fraction = -1.0)",131.633
C:/Users/srbb21/AppData/Local/Temp/rx18_gr30001521653382.841.odb,RELAX,Increment    105: Step Time =    1.000,SHELL-1,668,-5.65216,0.75,17.0877,ASSEMBLY_SHELL-1_ALLEL,TI,"shell < TI > < 5 section points > : SNEG, (fraction = -1.0)",131.629
C:/Users/srbb21/AppData/Local/Temp/rx18_gr30001521653382.841.odb,RELAX,Increment    105: Step Time =    1.000,SHELL-1,668,-5.65216,0.75,17.0877,ASSEMBLY_SHELL-1_ALLEL,TI,"shell < TI > < 5 section points > : SPOS, (fraction = 1.0)",118.073
C:/Users/srbb21/AppData/Local/Temp/rx18_gr30001521653382.841.odb,RELAX,Increment    105: Step Time =    1.000,SHELL-1,669,-5.65216,1.25,17.0877,ASSEMBLY_SHELL-1_ALLEL,TI,"shell < TI > < 5 section points > : SPOS, (fraction = 1.0)",118.088
C:/Users/srbb21/AppData/Local/Temp/rx18_gr30001521653382.841.odb,RELAX,Increment    105: Step Time =    1.000,SHELL-1,669,-5.65216,1.25,17.0877,ASSEMBLY_SHELL-1_ALLEL,TI,"shell < TI > < 5 section points > : SNEG, (fraction = -1.0)",131.611
C:/Users/srbb21/AppData/Local/Temp/rx18_gr30001521653382.841.odb,RELAX,Increment    105: Step Time =    1.000,SHELL-1,670,-5.65216,1.75,17.0877,ASSEMBLY_SHELL-1_ALLEL,TI,"shell < TI > < 5 section points > : SPOS, (fraction = 1.0)",118.135
C:/Users/srbb21/AppData/Local/Temp/rx18_gr30001521653382.841.odb,RELAX,Increment    105: Step Time =    1.000,SHELL-1,670,-5.65216,1.75,17.0877,ASSEMBLY_SHELL-1_ALLEL,TI,"shell < TI > < 5 section points > : SNEG, (fraction = -1.0)",131.557
C:/Users/srbb21/AppData/Local/Temp/rx18_gr30001521653382.841.odb,RELAX,Increment    105: Step Time =    1.000,SHELL-1,671,-5.65216,2.25,17.0877,ASSEMBLY_SHELL-1_ALLEL,TI,"shell < TI > < 5 section points > : SPOS, (fraction = 1.0)",118.241
C:/Users/srbb21/AppData/Local/Temp/rx18_gr30001521653382.841.odb,RELAX,Increment    105: Step Time =    1.000,SHELL-1,671,-5.65216,2.25,17.0877,ASSEMBLY_SHELL-1_ALLEL,TI,"shell < TI > < 5 section points > : SNEG, (fraction = -1.0)",131.438
C:/Users/srbb21/AppData/Local/Temp/rx18_gr30001521653382.841.odb,RELAX,Increment    105: Step Time =    1.000,SHELL-1,672,-5.65216,2.75,17.0877,ASSEMBLY_SHELL-1_ALLEL,TI,"shell < TI > < 5 section points > : SNEG, (fraction = -1.0)",131.212
C:/Users/srbb21/AppData/Local/Temp/rx18_gr30001521653382.841.odb,RELAX,Increment    105: Step Time =    1.000,SHELL-1,672,-5.65216,2.75,17.0877,ASSEMBLY_SHELL-1_ALLEL,TI,"shell < TI > < 5 section points > : SPOS, (fraction = 1.0)",118.439
C:/Users/srbb21/AppData/Local/Temp/rx18_gr30001521653382.841.odb,RELAX,Increment    105: Step Time =    1.000,SHELL-1,673,-5.65216,3.25,17.0877,ASSEMBLY_SHELL-1_ALLEL,TI,"shell < TI > < 5 section points > : SPOS, (fraction = 1.0)",118.77
C:/Users/srbb21/AppData/Local/Temp/rx18_gr30001521653382.841.odb,RELAX,Increment    105: Step Time =    1.000,SHELL-1,673,-5.65216,3.25,17.0877,ASSEMBLY_SHELL-1_ALLEL,TI,"shell < TI > < 5 section points > : SNEG, (fraction = -1.0)",130.83
C:/Users/srbb21/AppData/Local/Temp/rx18_gr30001521653382.841.odb,RELAX,Increment    105: Step Time =    1.000,SHELL-1,674,-5.65216,3.75,17.0877,ASSEMBLY_SHELL-1_ALLEL,TI,"shell < TI > < 5 section points > : SPOS, (fraction = 1.0)",119.275
C:/Users/srbb21/AppData/Local/Temp/rx18_gr30001521653382.841.odb,RELAX,Increment    105: Step Time =    1.000,SHELL-1,674,-5.65216,3.75,17.0877,ASSEMBLY_SHELL-1_ALLEL,TI,"shell < TI > < 5 section points > : SNEG, (fraction = -1.0)",130.236
C:/Users/srbb21/AppData/Local/Temp/rx18_gr30001521653382.841.odb,RELAX,Increment    105: Step Time =    1.000,SHELL-1,675,-5.65216,4.25,17.0877,ASSEMBLY_SHELL-1_ALLEL,TI,"shell < TI > < 5 section points > : SPOS, (fraction = 1.0)",119.995
C:/Users/srbb21/AppData/Local/Temp/rx18_gr30001521653382.841.odb,RELAX,Increment    105: Step Time =    1.000,SHELL-1,675,-5.65216,4.25,17.0877,ASSEMBLY_SHELL-1_ALLEL,TI,"shell < TI > < 5 section points > : SNEG, (fraction = -1.0)",129.367
C:/Users/srbb21/AppData/Local/Temp/rx18_gr30001521653382.841.odb,RELAX,Increment    105: Step Time =    1.000,SHELL-1,676,-5.65216,4.75,17.0877,ASSEMBLY_SHELL-1_ALLEL,TI,"shell < TI > < 5 section points > : SNEG, (fraction = -1.0)",128.162
C:/Users/srbb21/AppData/Local/Temp/rx18_gr30001521653382.841.odb,RELAX,Increment    105: Step Time =    1.000,SHELL-1,676,-5.65216,4.75,17.0877,ASSEMBLY_SHELL-1_ALLEL,TI,"shell < TI > < 5 section points > : SPOS, (fraction = 1.0)",120.973
C:/Users/srbb21/AppData/Local/Temp/rx18_gr30001521653382.841.odb,RELAX,Increment    105: Step Time =    1.000,SHELL-1,677,-5.65216,5.25,17.0877,ASSEMBLY_SHELL-1_ALLEL,TI,"shell < TI > < 5 section points > : SPOS, (fraction = 1.0)",122.246
C:/Users/srbb21/AppData/Local/Temp/rx18_gr30001521653382.841.odb,RELAX,Increment    105: Step Time =    1.000,SHELL-1,677,-5.65216,5.25,17.0877,ASSEMBLY_SHELL-1_ALLEL,TI,"shell < TI > < 5 section points > : SNEG, (fraction = -1.0)",126.563
C:/Users/srbb21/AppData/Local/Temp/rx18_gr30001521653382.841.odb,RELAX,Increment    105: Step Time =    1.000,SHELL-1,678,-5.65216,5.75,17.0877,ASSEMBLY_SHELL-1_ALLEL,TI,"shell < TI > < 5 section points > : SPOS, (fraction = 1.0)",123.846
C:/Users/srbb21/AppData/Local/Temp/rx18_gr30001521653382.841.odb,RELAX,Increment    105: Step Time =    1.000,SHELL-1,678,-5.65216,5.75,17.0877,ASSEMBLY_SHELL-1_ALLEL,TI,"shell < TI > < 5 section points > : SNEG, (fraction = -1.0)",124.523
C:/Users/srbb21/AppData/Local/Temp/rx18_gr30001521653382.841.odb,RELAX,Increment    105: Step Time =    1.000,SHELL-1,679,-5.65216,6.25,17.0877,ASSEMBLY_SHELL-1_ALLEL,TI,"shell < TI > < 5 section points > : SPOS, (fraction = 1.0)",125.795
C:/Users/srbb21/AppData/Local/Temp/rx18_gr30001521653382.841.odb,RELAX,Increment    105: Step Time =    1.000,SHELL-1,679,-5.65216,6.25,17.0877,ASSEMBLY_SHELL-1_ALLEL,TI,"shell < TI > < 5 section points > : SNEG, (fraction = -1.0)",122.011
C:/Users/srbb21/AppData/Local/Temp/rx18_gr30001521653382.841.odb,RELAX,Increment    105: Step Time =    1.000,SHELL-1,680,-5.65216,6.75,17.0877,ASSEMBLY_SHELL-1_ALLEL,TI,"shell < TI > < 5 section points > : SPOS, (fraction = 1.0)",128.106
C:/Users/srbb21/AppData/Local/Temp/rx18_gr30001521653382.841.odb,RELAX,Increment    105: Step Time =    1.000,SHELL-1,680,-5.65216,6.75,17.0877,ASSEMBLY_SHELL-1_ALLEL,TI,"shell < TI > < 5 section points > : SNEG, (fraction = -1.0)",119.021
C:/Users/srbb21/AppData/Local/Temp/rx18_gr30001521653382.841.odb,RELAX,Increment    105: Step Time =    1.000,SHELL-1,681,-5.65216,7.25,17.0877,ASSEMBLY_SHELL-1_ALLEL,TI,"shell < TI > < 5 section points > : SNEG, (fraction = -1.0)",115.574
C:/Users/srbb21/AppData/Local/Temp/rx18_gr30001521653382.841.odb,RELAX,Increment    105: Step Time =    1.000,SHELL-1,681,-5.65216,7.25,17.0877,ASSEMBLY_SHELL-1_ALLEL,TI,"shell < TI > < 5 section points > : SPOS, (fraction = 1.0)",130.771
C:/Users/srbb21/AppData/Local/Temp/rx18_gr30001521653382.841.odb,RELAX,Increment    105: Step Time =    1.000,SHELL-1,682,-5.65216,7.75,17.0877,ASSEMBLY_SHELL-1_ALLEL,TI,"shell < TI > < 5 section points > : SPOS, (fraction = 1.0)",133.77
C:/Users/srbb21/AppData/Local/Temp/rx18_gr30001521653382.841.odb,RELAX,Increment    105: Step Time =    1.000,SHELL-1,682,-5.65216,7.75,17.0877,ASSEMBLY_SHELL-1_ALLEL,TI,"shell < TI > < 5 section points > : SNEG, (fraction = -1.0)",111.725
C:/Users/srbb21/AppData/Local/Temp/rx18_gr30001521653382.841.odb,RELAX,Increment    105: Step Time =    1.000,SHELL-1,683,-5.65216,8.25,17.0877,ASSEMBLY_SHELL-1_ALLEL,TI,"shell < TI > < 5 section points > : SPOS, (fraction = 1.0)",137.055
C:/Users/srbb21/AppData/Local/Temp/rx18_gr30001521653382.841.odb,RELAX,Increment    105: Step Time =    1.000,SHELL-1,683,-5.65216,8.25,17.0877,ASSEMBLY_SHELL-1_ALLEL,TI,"shell < TI > < 5 section points > : SNEG, (fraction = -1.0)",107.557
C:/Users/srbb21/AppData/Local/Temp/rx18_gr30001521653382.841.odb,RELAX,Increment    105: Step Time =    1.000,SHELL-1,684,-5.65216,8.75,17.0877,ASSEMBLY_SHELL-1_ALLEL,TI,"shell < TI > < 5 section points > : SPOS, (fraction = 1.0)",140.569
C:/Users/srbb21/AppData/Local/Temp/rx18_gr30001521653382.841.odb,RELAX,Increment    105: Step Time =    1.000,SHELL-1,684,-5.65216,8.75,17.0877,ASSEMBLY_SHELL-1_ALLEL,TI,"shell < TI > < 5 section points > : SNEG, (fraction = -1.0)",103.181
C:/Users/srbb21/AppData/Local/Temp/rx18_gr30001521653382.841.odb,RELAX,Increment    105: Step Time =    1.000,SHELL-1,685,-5.17538,-8.75,17.2381,ASSEMBLY_SHELL-1_ALLEL,TI,"shell < TI > < 5 section points > : SNEG, (fraction = -1.0)",103.908
C:/Users/srbb21/AppData/Local/Temp/rx18_gr30001521653382.841.odb,RELAX,Increment    105: Step Time =    1.000,SHELL-1,685,-5.17538,-8.75,17.2381,ASSEMBLY_SHELL-1_ALLEL,TI,"shell < TI > < 5 section points > : SPOS, (fraction = 1.0)",140.331
C:/Users/srbb21/AppData/Local/Temp/rx18_gr30001521653382.841.odb,RELAX,Increment    105: Step Time =    1.000,SHELL-1,686,-5.17538,-8.25,17.2381,ASSEMBLY_SHELL-1_ALLEL,TI,"shell < TI > < 5 section points > : SPOS, (fraction = 1.0)",136.991
C:/Users/srbb21/AppData/Local/Temp/rx18_gr30001521653382.841.odb,RELAX,Increment    105: Step Time =    1.000,SHELL-1,686,-5.17538,-8.25,17.2381,ASSEMBLY_SHELL-1_ALLEL,TI,"shell < TI > < 5 section points > : SNEG, (fraction = -1.0)",108.033
C:/Users/srbb21/AppData/Local/Temp/rx18_gr30001521653382.841.odb,RELAX,Increment    105: Step Time =    1.000,SHELL-1,687,-5.17538,-7.75,17.2381,ASSEMBLY_SHELL-1_ALLEL,TI,"shell < TI > < 5 section points > : SPOS, (fraction = 1.0)",133.878
C:/Users/srbb21/AppData/Local/Temp/rx18_gr30001521653382.841.odb,RELAX,Increment    105: Step Time =    1.000,SHELL-1,687,-5.17538,-7.75,17.2381,ASSEMBLY_SHELL-1_ALLEL,TI,"shell < TI > < 5 section points > : SNEG, (fraction = -1.0)",111.944
C:/Users/srbb21/AppData/Local/Temp/rx18_gr30001521653382.841.odb,RELAX,Increment    105: Step Time =    1.000,SHELL-1,688,-5.17538,-7.25,17.2381,ASSEMBLY_SHELL-1_ALLEL,TI,"shell < TI > < 5 section points > : SPOS, (fraction = 1.0)",131.025
C:/Users/srbb21/AppData/Local/Temp/rx18_gr30001521653382.841.odb,RELAX,Increment    105: Step Time =    1.000,SHELL-1,688,-5.17538,-7.25,17.2381,ASSEMBLY_SHELL-1_ALLEL,TI,"shell < TI > < 5 section points > : SNEG, (fraction = -1.0)",115.562
C:/Users/srbb21/AppData/Local/Temp/rx18_gr30001521653382.841.odb,RELAX,Increment    105: Step Time =    1.000,SHELL-1,689,-5.17538,-6.75,17.2381,ASSEMBLY_SHELL-1_ALLEL,TI,"shell < TI > < 5 section points > : SNEG, (fraction = -1.0)",118.818
C:/Users/srbb21/AppData/Local/Temp/rx18_gr30001521653382.841.odb,RELAX,Increment    105: Step Time =    1.000,SHELL-1,689,-5.17538,-6.75,17.2381,ASSEMBLY_SHELL-1_ALLEL,TI,"shell < TI > < 5 section points > : SPOS, (fraction = 1.0)",128.464
C:/Users/srbb21/AppData/Local/Temp/rx18_gr30001521653382.841.odb,RELAX,Increment    105: Step Time =    1.000,SHELL-1,690,-5.17538,-6.25,17.2381,ASSEMBLY_SHELL-1_ALLEL,TI,"shell < TI > < 5 section points > : SPOS, (fraction = 1.0)",126.21
C:/Users/srbb21/AppData/Local/Temp/rx18_gr30001521653382.841.odb,RELAX,Increment    105: Step Time =    1.000,SHELL-1,690,-5.17538,-6.25,17.2381,ASSEMBLY_SHELL-1_ALLEL,TI,"shell < TI > < 5 section points > : SNEG, (fraction = -1.0)",121.671
C:/Users/srbb21/AppData/Local/Temp/rx18_gr30001521653382.841.odb,RELAX,Increment    105: Step Time =    1.000,SHELL-1,691,-5.17538,-5.75,17.2381,ASSEMBLY_SHELL-1_ALLEL,TI,"shell < TI > < 5 section points > : SPOS, (fraction = 1.0)",124.267
C:/Users/srbb21/AppData/Local/Temp/rx18_gr30001521653382.841.odb,RELAX,Increment    105: Step Time =    1.000,SHELL-1,691,-5.17538,-5.75,17.2381,ASSEMBLY_SHELL-1_ALLEL,TI,"shell < TI > < 5 section points > : SNEG, (fraction = -1.0)",124.096
C:/Users/srbb21/AppData/Local/Temp/rx18_gr30001521653382.841.odb,RELAX,Increment    105: Step Time =    1.000,SHELL-1,692,-5.17538,-5.25,17.2381,ASSEMBLY_SHELL-1_ALLEL,TI,"shell < TI > < 5 section points > : SPOS, (fraction = 1.0)",122.627
C:/Users/srbb21/AppData/Local/Temp/rx18_gr30001521653382.841.odb,RELAX,Increment    105: Step Time =    1.000,SHELL-1,692,-5.17538,-5.25,17.2381,ASSEMBLY_SHELL-1_ALLEL,TI,"shell < TI > < 5 section points > : SNEG, (fraction = -1.0)",126.097
C:/Users/srbb21/AppData/Local/Temp/rx18_gr30001521653382.841.odb,RELAX,Increment    105: Step Time =    1.000,SHELL-1,693,-5.17538,-4.75,17.2381,ASSEMBLY_SHELL-1_ALLEL,TI,"shell < TI > < 5 section points > : SNEG, (fraction = -1.0)",127.696
C:/Users/srbb21/AppData/Local/Temp/rx18_gr30001521653382.841.odb,RELAX,Increment    105: Step Time =    1.000,SHELL-1,693,-5.17538,-4.75,17.2381,ASSEMBLY_SHELL-1_ALLEL,TI,"shell < TI > < 5 section points > : SPOS, (fraction = 1.0)",121.275
C:/Users/srbb21/AppData/Local/Temp/rx18_gr30001521653382.841.odb,RELAX,Increment    105: Step Time =    1.000,SHELL-1,694,-5.17538,-4.25,17.2381,ASSEMBLY_SHELL-1_ALLEL,TI,"shell < TI > < 5 section points > : SPOS, (fraction = 1.0)",120.187
C:/Users/srbb21/AppData/Local/Temp/rx18_gr30001521653382.841.odb,RELAX,Increment    105: Step Time =    1.000,SHELL-1,694,-5.17538,-4.25,17.2381,ASSEMBLY_SHELL-1_ALLEL,TI,"shell < TI > < 5 section points > : SNEG, (fraction = -1.0)",128.93
C:/Users/srbb21/AppData/Local/Temp/rx18_gr30001521653382.841.odb,RELAX,Increment    105: Step Time =    1.000,SHELL-1,695,-5.17538,-3.75,17.2381,ASSEMBLY_SHELL-1_ALLEL,TI,"shell < TI > < 5 section points > : SPOS, (fraction = 1.0)",119.336
C:/Users/srbb21/AppData/Local/Temp/rx18_gr30001521653382.841.odb,RELAX,Increment    105: Step Time =    1.000,SHELL-1,695,-5.17538,-3.75,17.2381,ASSEMBLY_SHELL-1_ALLEL,TI,"shell < TI > < 5 section points > : SNEG, (fraction = -1.0)",129.846
C:/Users/srbb21/AppData/Local/Temp/rx18_gr30001521653382.841.odb,RELAX,Increment    105: Step Time =    1.000,SHELL-1,696,-5.17538,-3.25,17.2381,ASSEMBLY_SHELL-1_ALLEL,TI,"shell < TI > < 5 section points > : SPOS, (fraction = 1.0)",118.691
C:/Users/srbb21/AppData/Local/Temp/rx18_gr30001521653382.841.odb,RELAX,Increment    105: Step Time =    1.000,SHELL-1,696,-5.17538,-3.25,17.2381,ASSEMBLY_SHELL-1_ALLEL,TI,"shell < TI > < 5 section points > : SNEG, (fraction = -1.0)",130.498
C:/Users/srbb21/AppData/Local/Temp/rx18_gr30001521653382.841.odb,RELAX,Increment    105: Step Time =    1.000,SHELL-1,697,-5.17538,-2.75,17.2381,ASSEMBLY_SHELL-1_ALLEL,TI,"shell < TI > < 5 section points > : SPOS, (fraction = 1.0)",118.22
C:/Users/srbb21/AppData/Local/Temp/rx18_gr30001521653382.841.odb,RELAX,Increment    105: Step Time =    1.000,SHELL-1,697,-5.17538,-2.75,17.2381,ASSEMBLY_SHELL-1_ALLEL,TI,"shell < TI > < 5 section points > : SNEG, (fraction = -1.0)",130.94
C:/Users/srbb21/AppData/Local/Temp/rx18_gr30001521653382.841.odb,RELAX,Increment    105: Step Time =    1.000,SHELL-1,698,-5.17538,-2.25,17.2381,ASSEMBLY_SHELL-1_ALLEL,TI,"shell < TI > < 5 section points > : SNEG, (fraction = -1.0)",131.223
C:/Users/srbb21/AppData/Local/Temp/rx18_gr30001521653382.841.odb,RELAX,Increment    105: Step Time =    1.000,SHELL-1,698,-5.17538,-2.25,17.2381,ASSEMBLY_SHELL-1_ALLEL,TI,"shell < TI > < 5 section points > : SPOS, (fraction = 1.0)",117.889
C:/Users/srbb21/AppData/Local/Temp/rx18_gr30001521653382.841.odb,RELAX,Increment    105: Step Time =    1.000,SHELL-1,699,-5.17538,-1.75,17.2381,ASSEMBLY_SHELL-1_ALLEL,TI,"shell < TI > < 5 section points > : SPOS, (fraction = 1.0)",117.668
C:/Users/srbb21/AppData/Local/Temp/rx18_gr30001521653382.841.odb,RELAX,Increment    105: Step Time =    1.000,SHELL-1,699,-5.17538,-1.75,17.2381,ASSEMBLY_SHELL-1_ALLEL,TI,"shell < TI > < 5 section points > : SNEG, (fraction = -1.0)",131.391
C:/Users/srbb21/AppData/Local/Temp/rx18_gr30001521653382.841.odb,RELAX,Increment    105: Step Time =    1.000,SHELL-1,700,-5.17538,-1.25,17.2381,ASSEMBLY_SHELL-1_ALLEL,TI,"shell < TI > < 5 section points > : SPOS, (fraction = 1.0)",117.529
C:/Users/srbb21/AppData/Local/Temp/rx18_gr30001521653382.841.odb,RELAX,Increment    105: Step Time =    1.000,SHELL-1,700,-5.17538,-1.25,17.2381,ASSEMBLY_SHELL-1_ALLEL,TI,"shell < TI > < 5 section points > : SNEG, (fraction = -1.0)",131.484
C:/Users/srbb21/AppData/Local/Temp/rx18_gr30001521653382.841.odb,RELAX,Increment    105: Step Time =    1.000,SHELL-1,701,-5.17538,-0.75,17.2381,ASSEMBLY_SHELL-1_ALLEL,TI,"shell < TI > < 5 section points > : SPOS, (fraction = 1.0)",117.45
C:/Users/srbb21/AppData/Local/Temp/rx18_gr30001521653382.841.odb,RELAX,Increment    105: Step Time =    1.000,SHELL-1,701,-5.17538,-0.75,17.2381,ASSEMBLY_SHELL-1_ALLEL,TI,"shell < TI > < 5 section points > : SNEG, (fraction = -1.0)",131.529
C:/Users/srbb21/AppData/Local/Temp/rx18_gr30001521653382.841.odb,RELAX,Increment    105: Step Time =    1.000,SHELL-1,702,-5.17538,-0.25,17.2381,ASSEMBLY_SHELL-1_ALLEL,TI,"shell < TI > < 5 section points > : SNEG, (fraction = -1.0)",131.547
C:/Users/srbb21/AppData/Local/Temp/rx18_gr30001521653382.841.odb,RELAX,Increment    105: Step Time =    1.000,SHELL-1,702,-5.17538,-0.25,17.2381,ASSEMBLY_SHELL-1_ALLEL,TI,"shell < TI > < 5 section points > : SPOS, (fraction = 1.0)",117.414
C:/Users/srbb21/AppData/Local/Temp/rx18_gr30001521653382.841.odb,RELAX,Increment    105: Step Time =    1.000,SHELL-1,703,-5.17538,0.25,17.2381,ASSEMBLY_SHELL-1_ALLEL,TI,"shell < TI > < 5 section points > : SPOS, (fraction = 1.0)",117.414
C:/Users/srbb21/AppData/Local/Temp/rx18_gr30001521653382.841.odb,RELAX,Increment    105: Step Time =    1.000,SHELL-1,703,-5.17538,0.25,17.2381,ASSEMBLY_SHELL-1_ALLEL,TI,"shell < TI > < 5 section points > : SNEG, (fraction = -1.0)",131.547
C:/Users/srbb21/AppData/Local/Temp/rx18_gr30001521653382.841.odb,RELAX,Increment    105: Step Time =    1.000,SHELL-1,704,-5.17538,0.75,17.2381,ASSEMBLY_SHELL-1_ALLEL,TI,"shell < TI > < 5 section points > : SPOS, (fraction = 1.0)",117.45
C:/Users/srbb21/AppData/Local/Temp/rx18_gr30001521653382.841.odb,RELAX,Increment    105: Step Time =    1.000,SHELL-1,704,-5.17538,0.75,17.2381,ASSEMBLY_SHELL-1_ALLEL,TI,"shell < TI > < 5 section points > : SNEG, (fraction = -1.0)",131.529
C:/Users/srbb21/AppData/Local/Temp/rx18_gr30001521653382.841.odb,RELAX,Increment    105: Step Time =    1.000,SHELL-1,705,-5.17538,1.25,17.2381,ASSEMBLY_SHELL-1_ALLEL,TI,"shell < TI > < 5 section points > : SPOS, (fraction = 1.0)",117.529
C:/Users/srbb21/AppData/Local/Temp/rx18_gr30001521653382.841.odb,RELAX,Increment    105: Step Time =    1.000,SHELL-1,705,-5.17538,1.25,17.2381,ASSEMBLY_SHELL-1_ALLEL,TI,"shell < TI > < 5 section points > : SNEG, (fraction = -1.0)",131.484
C:/Users/srbb21/AppData/Local/Temp/rx18_gr30001521653382.841.odb,RELAX,Increment    105: Step Time =    1.000,SHELL-1,706,-5.17538,1.75,17.2381,ASSEMBLY_SHELL-1_ALLEL,TI,"shell < TI > < 5 section points > : SNEG, (fraction = -1.0)",131.391
C:/Users/srbb21/AppData/Local/Temp/rx18_gr30001521653382.841.odb,RELAX,Increment    105: Step Time =    1.000,SHELL-1,706,-5.17538,1.75,17.2381,ASSEMBLY_SHELL-1_ALLEL,TI,"shell < TI > < 5 section points > : SPOS, (fraction = 1.0)",117.668
C:/Users/srbb21/AppData/Local/Temp/rx18_gr30001521653382.841.odb,RELAX,Increment    105: Step Time =    1.000,SHELL-1,707,-5.17538,2.25,17.2381,ASSEMBLY_SHELL-1_ALLEL,TI,"shell < TI > < 5 section points > : SPOS, (fraction = 1.0)",117.889
C:/Users/srbb21/AppData/Local/Temp/rx18_gr30001521653382.841.odb,RELAX,Increment    105: Step Time =    1.000,SHELL-1,707,-5.17538,2.25,17.2381,ASSEMBLY_SHELL-1_ALLEL,TI,"shell < TI > < 5 section points > : SNEG, (fraction = -1.0)",131.223
C:/Users/srbb21/AppData/Local/Temp/rx18_gr30001521653382.841.odb,RELAX,Increment    105: Step Time =    1.000,SHELL-1,708,-5.17538,2.75,17.2381,ASSEMBLY_SHELL-1_ALLEL,TI,"shell < TI > < 5 section points > : SPOS, (fraction = 1.0)",118.22
C:/Users/srbb21/AppData/Local/Temp/rx18_gr30001521653382.841.odb,RELAX,Increment    105: Step Time =    1.000,SHELL-1,708,-5.17538,2.75,17.2381,ASSEMBLY_SHELL-1_ALLEL,TI,"shell < TI > < 5 section points > : SNEG, (fraction = -1.0)",130.94
C:/Users/srbb21/AppData/Local/Temp/rx18_gr30001521653382.841.odb,RELAX,Increment    105: Step Time =    1.000,SHELL-1,709,-5.17538,3.25,17.2381,ASSEMBLY_SHELL-1_ALLEL,TI,"shell < TI > < 5 section points > : SPOS, (fraction = 1.0)",118.691
C:/Users/srbb21/AppData/Local/Temp/rx18_gr30001521653382.841.odb,RELAX,Increment    105: Step Time =    1.000,SHELL-1,709,-5.17538,3.25,17.2381,ASSEMBLY_SHELL-1_ALLEL,TI,"shell < TI > < 5 section points > : SNEG, (fraction = -1.0)",130.498
C:/Users/srbb21/AppData/Local/Temp/rx18_gr30001521653382.841.odb,RELAX,Increment    105: Step Time =    1.000,SHELL-1,710,-5.17538,3.75,17.2381,ASSEMBLY_SHELL-1_ALLEL,TI,"shell < TI > < 5 section points > : SNEG, (fraction = -1.0)",129.846
C:/Users/srbb21/AppData/Local/Temp/rx18_gr30001521653382.841.odb,RELAX,Increment    105: Step Time =    1.000,SHELL-1,710,-5.17538,3.75,17.2381,ASSEMBLY_SHELL-1_ALLEL,TI,"shell < TI > < 5 section points > : SPOS, (fraction = 1.0)",119.336
C:/Users/srbb21/AppData/Local/Temp/rx18_gr30001521653382.841.odb,RELAX,Increment    105: Step Time =    1.000,SHELL-1,711,-5.17538,4.25,17.2381,ASSEMBLY_SHELL-1_ALLEL,TI,"shell < TI > < 5 section points > : SPOS, (fraction = 1.0)",120.187
C:/Users/srbb21/AppData/Local/Temp/rx18_gr30001521653382.841.odb,RELAX,Increment    105: Step Time =    1.000,SHELL-1,711,-5.17538,4.25,17.2381,ASSEMBLY_SHELL-1_ALLEL,TI,"shell < TI > < 5 section points > : SNEG, (fraction = -1.0)",128.93
C:/Users/srbb21/AppData/Local/Temp/rx18_gr30001521653382.841.odb,RELAX,Increment    105: Step Time =    1.000,SHELL-1,712,-5.17538,4.75,17.2381,ASSEMBLY_SHELL-1_ALLEL,TI,"shell < TI > < 5 section points > : SPOS, (fraction = 1.0)",121.275
C:/Users/srbb21/AppData/Local/Temp/rx18_gr30001521653382.841.odb,RELAX,Increment    105: Step Time =    1.000,SHELL-1,712,-5.17538,4.75,17.2381,ASSEMBLY_SHELL-1_ALLEL,TI,"shell < TI > < 5 section points > : SNEG, (fraction = -1.0)",127.696
C:/Users/srbb21/AppData/Local/Temp/rx18_gr30001521653382.841.odb,RELAX,Increment    105: Step Time =    1.000,SHELL-1,713,-5.17538,5.25,17.2381,ASSEMBLY_SHELL-1_ALLEL,TI,"shell < TI > < 5 section points > : SPOS, (fraction = 1.0)",122.627
C:/Users/srbb21/AppData/Local/Temp/rx18_gr30001521653382.841.odb,RELAX,Increment    105: Step Time =    1.000,SHELL-1,713,-5.17538,5.25,17.2381,ASSEMBLY_SHELL-1_ALLEL,TI,"shell < TI > < 5 section points > : SNEG, (fraction = -1.0)",126.097
C:/Users/srbb21/AppData/Local/Temp/rx18_gr30001521653382.841.odb,RELAX,Increment    105: Step Time =    1.000,SHELL-1,714,-5.17538,5.75,17.2381,ASSEMBLY_SHELL-1_ALLEL,TI,"shell < TI > < 5 section points > : SPOS, (fraction = 1.0)",124.267
C:/Users/srbb21/AppData/Local/Temp/rx18_gr30001521653382.841.odb,RELAX,Increment    105: Step Time =    1.000,SHELL-1,714,-5.17538,5.75,17.2381,ASSEMBLY_SHELL-1_ALLEL,TI,"shell < TI > < 5 section points > : SNEG, (fraction = -1.0)",124.096
C:/Users/srbb21/AppData/Local/Temp/rx18_gr30001521653382.841.odb,RELAX,Increment    105: Step Time =    1.000,SHELL-1,715,-5.17538,6.25,17.2381,ASSEMBLY_SHELL-1_ALLEL,TI,"shell < TI > < 5 section points > : SNEG, (fraction = -1.0)",121.671
C:/Users/srbb21/AppData/Local/Temp/rx18_gr30001521653382.841.odb,RELAX,Increment    105: Step Time =    1.000,SHELL-1,715,-5.17538,6.25,17.2381,ASSEMBLY_SHELL-1_ALLEL,TI,"shell < TI > < 5 section points > : SPOS, (fraction = 1.0)",126.21
C:/Users/srbb21/AppData/Local/Temp/rx18_gr30001521653382.841.odb,RELAX,Increment    105: Step Time =    1.000,SHELL-1,716,-5.17538,6.75,17.2381,ASSEMBLY_SHELL-1_ALLEL,TI,"shell < TI > < 5 section points > : SPOS, (fraction = 1.0)",128.464
C:/Users/srbb21/AppData/Local/Temp/rx18_gr30001521653382.841.odb,RELAX,Increment    105: Step Time =    1.000,SHELL-1,716,-5.17538,6.75,17.2381,ASSEMBLY_SHELL-1_ALLEL,TI,"shell < TI > < 5 section points > : SNEG, (fraction = -1.0)",118.818
C:/Users/srbb21/AppData/Local/Temp/rx18_gr30001521653382.841.odb,RELAX,Increment    105: Step Time =    1.000,SHELL-1,717,-5.17538,7.25,17.2381,ASSEMBLY_SHELL-1_ALLEL,TI,"shell < TI > < 5 section points > : SPOS, (fraction = 1.0)",131.025
C:/Users/srbb21/AppData/Local/Temp/rx18_gr30001521653382.841.odb,RELAX,Increment    105: Step Time =    1.000,SHELL-1,717,-5.17538,7.25,17.2381,ASSEMBLY_SHELL-1_ALLEL,TI,"shell < TI > < 5 section points > : SNEG, (fraction = -1.0)",115.562
C:/Users/srbb21/AppData/Local/Temp/rx18_gr30001521653382.841.odb,RELAX,Increment    105: Step Time =    1.000,SHELL-1,718,-5.17538,7.75,17.2381,ASSEMBLY_SHELL-1_ALLEL,TI,"shell < TI > < 5 section points > : SPOS, (fraction = 1.0)",133.878
C:/Users/srbb21/AppData/Local/Temp/rx18_gr30001521653382.841.odb,RELAX,Increment    105: Step Time =    1.000,SHELL-1,718,-5.17538,7.75,17.2381,ASSEMBLY_SHELL-1_ALLEL,TI,"shell < TI > < 5 section points > : SNEG, (fraction = -1.0)",111.944
C:/Users/srbb21/AppData/Local/Temp/rx18_gr30001521653382.841.odb,RELAX,Increment    105: Step Time =    1.000,SHELL-1,719,-5.17538,8.25,17.2381,ASSEMBLY_SHELL-1_ALLEL,TI,"shell < TI > < 5 section points > : SNEG, (fraction = -1.0)",108.033
C:/Users/srbb21/AppData/Local/Temp/rx18_gr30001521653382.841.odb,RELAX,Increment    105: Step Time =    1.000,SHELL-1,719,-5.17538,8.25,17.2381,ASSEMBLY_SHELL-1_ALLEL,TI,"shell < TI > < 5 section points > : SPOS, (fraction = 1.0)",136.991
C:/Users/srbb21/AppData/Local/Temp/rx18_gr30001521653382.841.odb,RELAX,Increment    105: Step Time =    1.000,SHELL-1,720,-5.17538,8.75,17.2381,ASSEMBLY_SHELL-1_ALLEL,TI,"shell < TI > < 5 section points > : SPOS, (fraction = 1.0)",140.331
C:/Users/srbb21/AppData/Local/Temp/rx18_gr30001521653382.841.odb,RELAX,Increment    105: Step Time =    1.000,SHELL-1,720,-5.17538,8.75,17.2381,ASSEMBLY_SHELL-1_ALLEL,TI,"shell < TI > < 5 section points > : SNEG, (fraction = -1.0)",103.908
C:/Users/srbb21/AppData/Local/Temp/rx18_gr30001521653382.841.odb,RELAX,Increment    105: Step Time =    1.000,SHELL-1,721,-4.69461,-8.75,17.3752,ASSEMBLY_SHELL-1_ALLEL,TI,"shell < TI > < 5 section points > : SPOS, (fraction = 1.0)",140.171
C:/Users/srbb21/AppData/Local/Temp/rx18_gr30001521653382.841.odb,RELAX,Increment    105: Step Time =    1.000,SHELL-1,721,-4.69461,-8.75,17.3752,ASSEMBLY_SHELL-1_ALLEL,TI,"shell < TI > < 5 section points > : SNEG, (fraction = -1.0)",104.523
C:/Users/srbb21/AppData/Local/Temp/rx18_gr30001521653382.841.odb,RELAX,Increment    105: Step Time =    1.000,SHELL-1,722,-4.69461,-8.25,17.3752,ASSEMBLY_SHELL-1_ALLEL,TI,"shell < TI > < 5 section points > : SPOS, (fraction = 1.0)",136.969
C:/Users/srbb21/AppData/Local/Temp/rx18_gr30001521653382.841.odb,RELAX,Increment    105: Step Time =    1.000,SHELL-1,722,-4.69461,-8.25,17.3752,ASSEMBLY_SHELL-1_ALLEL,TI,"shell < TI > < 5 section points > : SNEG, (fraction = -1.0)",108.444
C:/Users/srbb21/AppData/Local/Temp/rx18_gr30001521653382.841.odb,RELAX,Increment    105: Step Time =    1.000,SHELL-1,723,-4.69461,-7.75,17.3752,ASSEMBLY_SHELL-1_ALLEL,TI,"shell < TI > < 5 section points > : SNEG, (fraction = -1.0)",112.15
C:/Users/srbb21/AppData/Local/Temp/rx18_gr30001521653382.841.odb,RELAX,Increment    105: Step Time =    1.000,SHELL-1,723,-4.69461,-7.75,17.3752,ASSEMBLY_SHELL-1_ALLEL,TI,"shell < TI > < 5 section points > : SPOS, (fraction = 1.0)",133.992
C:/Users/srbb21/AppData/Local/Temp/rx18_gr30001521653382.841.odb,RELAX,Increment    105: Step Time =    1.000,SHELL-1,724,-4.69461,-7.25,17.3752,ASSEMBLY_SHELL-1_ALLEL,TI,"shell < TI > < 5 section points > : SPOS, (fraction = 1.0)",131.258
C:/Users/srbb21/AppData/Local/Temp/rx18_gr30001521653382.841.odb,RELAX,Increment    105: Step Time =    1.000,SHELL-1,724,-4.69461,-7.25,17.3752,ASSEMBLY_SHELL-1_ALLEL,TI,"shell < TI > < 5 section points > : SNEG, (fraction = -1.0)",115.578
C:/Users/srbb21/AppData/Local/Temp/rx18_gr30001521653382.841.odb,RELAX,Increment    105: Step Time =    1.000,SHELL-1,725,-4.69461,-6.75,17.3752,ASSEMBLY_SHELL-1_ALLEL,TI,"shell < TI > < 5 section points > : SPOS, (fraction = 1.0)",128.786
C:/Users/srbb21/AppData/Local/Temp/rx18_gr30001521653382.841.odb,RELAX,Increment    105: Step Time =    1.000,SHELL-1,725,-4.69461,-6.75,17.3752,ASSEMBLY_SHELL-1_ALLEL,TI,"shell < TI > < 5 section points > : SNEG, (fraction = -1.0)",118.679
C:/Users/srbb21/AppData/Local/Temp/rx18_gr30001521653382.841.odb,RELAX,Increment    105: Step Time =    1.000,SHELL-1,726,-4.69461,-6.25,17.3752,ASSEMBLY_SHELL-1_ALLEL,TI,"shell < TI > < 5 section points > : SPOS, (fraction = 1.0)",126.586
C:/Users/srbb21/AppData/Local/Temp/rx18_gr30001521653382.841.odb,RELAX,Increment    105: Step Time =    1.000,SHELL-1,726,-4.69461,-6.25,17.3752,ASSEMBLY_SHELL-1_ALLEL,TI,"shell < TI > < 5 section points > : SNEG, (fraction = -1.0)",121.415
C:/Users/srbb21/AppData/Local/Temp/rx18_gr30001521653382.841.odb,RELAX,Increment    105: Step Time =    1.000,SHELL-1,727,-4.69461,-5.75,17.3752,ASSEMBLY_SHELL-1_ALLEL,TI,"shell < TI > < 5 section points > : SNEG, (fraction = -1.0)",123.768
C:/Users/srbb21/AppData/Local/Temp/rx18_gr30001521653382.841.odb,RELAX,Increment    105: Step Time =    1.000,SHELL-1,727,-4.69461,-5.75,17.3752,ASSEMBLY_SHELL-1_ALLEL,TI,"shell < TI > < 5 section points > : SPOS, (fraction = 1.0)",124.657
C:/Users/srbb21/AppData/Local/Temp/rx18_gr30001521653382.841.odb,RELAX,Increment    105: Step Time =    1.000,SHELL-1,728,-4.69461,-5.25,17.3752,ASSEMBLY_SHELL-1_ALLEL,TI,"shell < TI > < 5 section points > : SPOS, (fraction = 1.0)",122.995
C:/Users/srbb21/AppData/Local/Temp/rx18_gr30001521653382.841.odb,RELAX,Increment    105: Step Time =    1.000,SHELL-1,728,-4.69461,-5.25,17.3752,ASSEMBLY_SHELL-1_ALLEL,TI,"shell < TI > < 5 section points > : SNEG, (fraction = -1.0)",125.736
C:/Users/srbb21/AppData/Local/Temp/rx18_gr30001521653382.841.odb,RELAX,Increment    105: Step Time =    1.000,SHELL-1,729,-4.69461,-4.75,17.3752,ASSEMBLY_SHELL-1_ALLEL,TI,"shell < TI > < 5 section points > : SPOS, (fraction = 1.0)",121.587
C:/Users/srbb21/AppData/Local/Temp/rx18_gr30001521653382.841.odb,RELAX,Increment    105: Step Time =    1.000,SHELL-1,729,-4.69461,-4.75,17.3752,ASSEMBLY_SHELL-1_ALLEL,TI,"shell < TI > < 5 section points > : SNEG, (fraction = -1.0)",127.336
C:/Users/srbb21/AppData/Local/Temp/rx18_gr30001521653382.841.odb,RELAX,Increment    105: Step Time =    1.000,SHELL-1,730,-4.69461,-4.25,17.3752,ASSEMBLY_SHELL-1_ALLEL,TI,"shell < TI > < 5 section points > : SPOS, (fraction = 1.0)",120.416
C:/Users/srbb21/AppData/Local/Temp/rx18_gr30001521653382.841.odb,RELAX,Increment    105: Step Time =    1.000,SHELL-1,730,-4.69461,-4.25,17.3752,ASSEMBLY_SHELL-1_ALLEL,TI,"shell < TI > < 5 section points > : SNEG, (fraction = -1.0)",128.597
C:/Users/srbb21/AppData/Local/Temp/rx18_gr30001521653382.841.odb,RELAX,Increment    105: Step Time =    1.000,SHELL-1,731,-4.69461,-3.75,17.3752,ASSEMBLY_SHELL-1_ALLEL,TI,"shell < TI > < 5 section points > : SPOS, (fraction = 1.0)",119.463
C:/Users/srbb21/AppData/Local/Temp/rx18_gr30001521653382.841.odb,RELAX,Increment    105: Step Time =    1.000,SHELL-1,731,-4.69461,-3.75,17.3752,ASSEMBLY_SHELL-1_ALLEL,TI,"shell < TI > < 5 section points > : SNEG, (fraction = -1.0)",129.559
C:/Users/srbb21/AppData/Local/Temp/rx18_gr30001521653382.841.odb,RELAX,Increment    105: Step Time =    1.000,SHELL-1,732,-4.69461,-3.25,17.3752,ASSEMBLY_SHELL-1_ALLEL,TI,"shell < TI > < 5 section points > : SNEG, (fraction = -1.0)",130.267
C:/Users/srbb21/AppData/Local/Temp/rx18_gr30001521653382.841.odb,RELAX,Increment    105: Step Time =    1.000,SHELL-1,732,-4.69461,-3.25,17.3752,ASSEMBLY_SHELL-1_ALLEL,TI,"shell < TI > < 5 section points > : SPOS, (fraction = 1.0)",118.704
C:/Users/srbb21/AppData/Local/Temp/rx18_gr30001521653382.841.odb,RELAX,Increment    105: Step Time =    1.000,SHELL-1,733,-4.69461,-2.75,17.3752,ASSEMBLY_SHELL-1_ALLEL,TI,"shell < TI > < 5 section points > : SPOS, (fraction = 1.0)",118.116
C:/Users/srbb21/AppData/Local/Temp/rx18_gr30001521653382.841.odb,RELAX,Increment    105: Step Time =    1.000,SHELL-1,733,-4.69461,-2.75,17.3752,ASSEMBLY_SHELL-1_ALLEL,TI,"shell < TI > < 5 section points > : SNEG, (fraction = -1.0)",130.768
C:/Users/srbb21/AppData/Local/Temp/rx18_gr30001521653382.841.odb,RELAX,Increment    105: Step Time =    1.000,SHELL-1,734,-4.69461,-2.25,17.3752,ASSEMBLY_SHELL-1_ALLEL,TI,"shell < TI > < 5 section points > : SPOS, (fraction = 1.0)",117.674
C:/Users/srbb21/AppData/Local/Temp/rx18_gr30001521653382.841.odb,RELAX,Increment    105: Step Time =    1.000,SHELL-1,734,-4.69461,-2.25,17.3752,ASSEMBLY_SHELL-1_ALLEL,TI,"shell < TI > < 5 section points > : SNEG, (fraction = -1.0)",131.106
C:/Users/srbb21/AppData/Local/Temp/rx18_gr30001521653382.841.odb,RELAX,Increment    105: Step Time =    1.000,SHELL-1,735,-4.69461,-1.75,17.3752,ASSEMBLY_SHELL-1_ALLEL,TI,"shell < TI > < 5 section points > : SPOS, (fraction = 1.0)",117.355
C:/Users/srbb21/AppData/Local/Temp/rx18_gr30001521653382.841.odb,RELAX,Increment    105: Step Time =    1.000,SHELL-1,735,-4.69461,-1.75,17.3752,ASSEMBLY_SHELL-1_ALLEL,TI,"shell < TI > < 5 section points > : SNEG, (fraction = -1.0)",131.324
C:/Users/srbb21/AppData/Local/Temp/rx18_gr30001521653382.841.odb,RELAX,Increment    105: Step Time =    1.000,SHELL-1,736,-4.69461,-1.25,17.3752,ASSEMBLY_SHELL-1_ALLEL,TI,"shell < TI > < 5 section points > : SNEG, (fraction = -1.0)",131.456
C:/Users/srbb21/AppData/Local/Temp/rx18_gr30001521653382.841.odb,RELAX,Increment    105: Step Time =    1.000,SHELL-1,736,-4.69461,-1.25,17.3752,ASSEMBLY_SHELL-1_ALLEL,TI,"shell < TI > < 5 section points > : SPOS, (fraction = 1.0)",117.136
C:/Users/srbb21/AppData/Local/Temp/rx18_gr30001521653382.841.odb,RELAX,Increment    105: Step Time =    1.000,SHELL-1,737,-4.69461,-0.75,17.3752,ASSEMBLY_SHELL-1_ALLEL,TI,"shell < TI > < 5 section points > : SPOS, (fraction = 1.0)",117.001
C:/Users/srbb21/AppData/Local/Temp/rx18_gr30001521653382.841.odb,RELAX,Increment    105: Step Time =    1.000,SHELL-1,737,-4.69461,-0.75,17.3752,ASSEMBLY_SHELL-1_ALLEL,TI,"shell < TI > < 5 section points > : SNEG, (fraction = -1.0)",131.529
C:/Users/srbb21/AppData/Local/Temp/rx18_gr30001521653382.841.odb,RELAX,Increment    105: Step Time =    1.000,SHELL-1,738,-4.69461,-0.25,17.3752,ASSEMBLY_SHELL-1_ALLEL,TI,"shell < TI > < 5 section points > : SPOS, (fraction = 1.0)",116.936
C:/Users/srbb21/AppData/Local/Temp/rx18_gr30001521653382.841.odb,RELAX,Increment    105: Step Time =    1.000,SHELL-1,738,-4.69461,-0.25,17.3752,ASSEMBLY_SHELL-1_ALLEL,TI,"shell < TI > < 5 section points > : SNEG, (fraction = -1.0)",131.56
C:/Users/srbb21/AppData/Local/Temp/rx18_gr30001521653382.841.odb,RELAX,Increment    105: Step Time =    1.000,SHELL-1,739,-4.69461,0.25,17.3752,ASSEMBLY_SHELL-1_ALLEL,TI,"shell < TI > < 5 section points > : SPOS, (fraction = 1.0)",116.936
C:/Users/srbb21/AppData/Local/Temp/rx18_gr30001521653382.841.odb,RELAX,Increment    105: Step Time =    1.000,SHELL-1,739,-4.69461,0.25,17.3752,ASSEMBLY_SHELL-1_ALLEL,TI,"shell < TI > < 5 section points > : SNEG, (fraction = -1.0)",131.56
C:/Users/srbb21/AppData/Local/Temp/rx18_gr30001521653382.841.odb,RELAX,Increment    105: Step Time =    1.000,SHELL-1,740,-4.69461,0.75,17.3752,ASSEMBLY_SHELL-1_ALLEL,TI,"shell < TI > < 5 section points > : SNEG, (fraction = -1.0)",131.529
C:/Users/srbb21/AppData/Local/Temp/rx18_gr30001521653382.841.odb,RELAX,Increment    105: Step Time =    1.000,SHELL-1,740,-4.69461,0.75,17.3752,ASSEMBLY_SHELL-1_ALLEL,TI,"shell < TI > < 5 section points > : SPOS, (fraction = 1.0)",117.001
C:/Users/srbb21/AppData/Local/Temp/rx18_gr30001521653382.841.odb,RELAX,Increment    105: Step Time =    1.000,SHELL-1,741,-4.69461,1.25,17.3752,ASSEMBLY_SHELL-1_ALLEL,TI,"shell < TI > < 5 section points > : SPOS, (fraction = 1.0)",117.136
C:/Users/srbb21/AppData/Local/Temp/rx18_gr30001521653382.841.odb,RELAX,Increment    105: Step Time =    1.000,SHELL-1,741,-4.69461,1.25,17.3752,ASSEMBLY_SHELL-1_ALLEL,TI,"shell < TI > < 5 section points > : SNEG, (fraction = -1.0)",131.456
C:/Users/srbb21/AppData/Local/Temp/rx18_gr30001521653382.841.odb,RELAX,Increment    105: Step Time =    1.000,SHELL-1,742,-4.69461,1.75,17.3752,ASSEMBLY_SHELL-1_ALLEL,TI,"shell < TI > < 5 section points > : SPOS, (fraction = 1.0)",117.355
C:/Users/srbb21/AppData/Local/Temp/rx18_gr30001521653382.841.odb,RELAX,Increment    105: Step Time =    1.000,SHELL-1,742,-4.69461,1.75,17.3752,ASSEMBLY_SHELL-1_ALLEL,TI,"shell < TI > < 5 section points > : SNEG, (fraction = -1.0)",131.324
C:/Users/srbb21/AppData/Local/Temp/rx18_gr30001521653382.841.odb,RELAX,Increment    105: Step Time =    1.000,SHELL-1,743,-4.69461,2.25,17.3752,ASSEMBLY_SHELL-1_ALLEL,TI,"shell < TI > < 5 section points > : SPOS, (fraction = 1.0)",117.674
C:/Users/srbb21/AppData/Local/Temp/rx18_gr30001521653382.841.odb,RELAX,Increment    105: Step Time =    1.000,SHELL-1,743,-4.69461,2.25,17.3752,ASSEMBLY_SHELL-1_ALLEL,TI,"shell < TI > < 5 section points > : SNEG, (fraction = -1.0)",131.106
C:/Users/srbb21/AppData/Local/Temp/rx18_gr30001521653382.841.odb,RELAX,Increment    105: Step Time =    1.000,SHELL-1,744,-4.69461,2.75,17.3752,ASSEMBLY_SHELL-1_ALLEL,TI,"shell < TI > < 5 section points > : SNEG, (fraction = -1.0)",130.768
C:/Users/srbb21/AppData/Local/Temp/rx18_gr30001521653382.841.odb,RELAX,Increment    105: Step Time =    1.000,SHELL-1,744,-4.69461,2.75,17.3752,ASSEMBLY_SHELL-1_ALLEL,TI,"shell < TI > < 5 section points > : SPOS, (fraction = 1.0)",118.116
C:/Users/srbb21/AppData/Local/Temp/rx18_gr30001521653382.841.odb,RELAX,Increment    105: Step Time =    1.000,SHELL-1,745,-4.69461,3.25,17.3752,ASSEMBLY_SHELL-1_ALLEL,TI,"shell < TI > < 5 section points > : SPOS, (fraction = 1.0)",118.704
C:/Users/srbb21/AppData/Local/Temp/rx18_gr30001521653382.841.odb,RELAX,Increment    105: Step Time =    1.000,SHELL-1,745,-4.69461,3.25,17.3752,ASSEMBLY_SHELL-1_ALLEL,TI,"shell < TI > < 5 section points > : SNEG, (fraction = -1.0)",130.267
C:/Users/srbb21/AppData/Local/Temp/rx18_gr30001521653382.841.odb,RELAX,Increment    105: Step Time =    1.000,SHELL-1,746,-4.69461,3.75,17.3752,ASSEMBLY_SHELL-1_ALLEL,TI,"shell < TI > < 5 section points > : SPOS, (fraction = 1.0)",119.463
C:/Users/srbb21/AppData/Local/Temp/rx18_gr30001521653382.841.odb,RELAX,Increment    105: Step Time =    1.000,SHELL-1,746,-4.69461,3.75,17.3752,ASSEMBLY_SHELL-1_ALLEL,TI,"shell < TI > < 5 section points > : SNEG, (fraction = -1.0)",129.559
C:/Users/srbb21/AppData/Local/Temp/rx18_gr30001521653382.841.odb,RELAX,Increment    105: Step Time =    1.000,SHELL-1,747,-4.69461,4.25,17.3752,ASSEMBLY_SHELL-1_ALLEL,TI,"shell < TI > < 5 section points > : SPOS, (fraction = 1.0)",120.416
C:/Users/srbb21/AppData/Local/Temp/rx18_gr30001521653382.841.odb,RELAX,Increment    105: Step Time =    1.000,SHELL-1,747,-4.69461,4.25,17.3752,ASSEMBLY_SHELL-1_ALLEL,TI,"shell < TI > < 5 section points > : SNEG, (fraction = -1.0)",128.597
C:/Users/srbb21/AppData/Local/Temp/rx18_gr30001521653382.841.odb,RELAX,Increment    105: Step Time =    1.000,SHELL-1,748,-4.69461,4.75,17.3752,ASSEMBLY_SHELL-1_ALLEL,TI,"shell < TI > < 5 section points > : SPOS, (fraction = 1.0)",121.587
C:/Users/srbb21/AppData/Local/Temp/rx18_gr30001521653382.841.odb,RELAX,Increment    105: Step Time =    1.000,SHELL-1,748,-4.69461,4.75,17.3752,ASSEMBLY_SHELL-1_ALLEL,TI,"shell < TI > < 5 section points > : SNEG, (fraction = -1.0)",127.336
C:/Users/srbb21/AppData/Local/Temp/rx18_gr30001521653382.841.odb,RELAX,Increment    105: Step Time =    1.000,SHELL-1,749,-4.69461,5.25,17.3752,ASSEMBLY_SHELL-1_ALLEL,TI,"shell < TI > < 5 section points > : SNEG, (fraction = -1.0)",125.736
C:/Users/srbb21/AppData/Local/Temp/rx18_gr30001521653382.841.odb,RELAX,Increment    105: Step Time =    1.000,SHELL-1,749,-4.69461,5.25,17.3752,ASSEMBLY_SHELL-1_ALLEL,TI,"shell < TI > < 5 section points > : SPOS, (fraction = 1.0)",122.995
C:/Users/srbb21/AppData/Local/Temp/rx18_gr30001521653382.841.odb,RELAX,Increment    105: Step Time =    1.000,SHELL-1,750,-4.69461,5.75,17.3752,ASSEMBLY_SHELL-1_ALLEL,TI,"shell < TI > < 5 section points > : SPOS, (fraction = 1.0)",124.657
C:/Users/srbb21/AppData/Local/Temp/rx18_gr30001521653382.841.odb,RELAX,Increment    105: Step Time =    1.000,SHELL-1,750,-4.69461,5.75,17.3752,ASSEMBLY_SHELL-1_ALLEL,TI,"shell < TI > < 5 section points > : SNEG, (fraction = -1.0)",123.768
C:/Users/srbb21/AppData/Local/Temp/rx18_gr30001521653382.841.odb,RELAX,Increment    105: Step Time =    1.000,SHELL-1,751,-4.69461,6.25,17.3752,ASSEMBLY_SHELL-1_ALLEL,TI,"shell < TI > < 5 section points > : SPOS, (fraction = 1.0)",126.586
C:/Users/srbb21/AppData/Local/Temp/rx18_gr30001521653382.841.odb,RELAX,Increment    105: Step Time =    1.000,SHELL-1,751,-4.69461,6.25,17.3752,ASSEMBLY_SHELL-1_ALLEL,TI,"shell < TI > < 5 section points > : SNEG, (fraction = -1.0)",121.415
C:/Users/srbb21/AppData/Local/Temp/rx18_gr30001521653382.841.odb,RELAX,Increment    105: Step Time =    1.000,SHELL-1,752,-4.69461,6.75,17.3752,ASSEMBLY_SHELL-1_ALLEL,TI,"shell < TI > < 5 section points > : SPOS, (fraction = 1.0)",128.786
C:/Users/srbb21/AppData/Local/Temp/rx18_gr30001521653382.841.odb,RELAX,Increment    105: Step Time =    1.000,SHELL-1,752,-4.69461,6.75,17.3752,ASSEMBLY_SHELL-1_ALLEL,TI,"shell < TI > < 5 section points > : SNEG, (fraction = -1.0)",118.679
C:/Users/srbb21/AppData/Local/Temp/rx18_gr30001521653382.841.odb,RELAX,Increment    105: Step Time =    1.000,SHELL-1,753,-4.69461,7.25,17.3752,ASSEMBLY_SHELL-1_ALLEL,TI,"shell < TI > < 5 section points > : SNEG, (fraction = -1.0)",115.578
C:/Users/srbb21/AppData/Local/Temp/rx18_gr30001521653382.841.odb,RELAX,Increment    105: Step Time =    1.000,SHELL-1,753,-4.69461,7.25,17.3752,ASSEMBLY_SHELL-1_ALLEL,TI,"shell < TI > < 5 section points > : SPOS, (fraction = 1.0)",131.258
C:/Users/srbb21/AppData/Local/Temp/rx18_gr30001521653382.841.odb,RELAX,Increment    105: Step Time =    1.000,SHELL-1,754,-4.69461,7.75,17.3752,ASSEMBLY_SHELL-1_ALLEL,TI,"shell < TI > < 5 section points > : SPOS, (fraction = 1.0)",133.992
C:/Users/srbb21/AppData/Local/Temp/rx18_gr30001521653382.841.odb,RELAX,Increment    105: Step Time =    1.000,SHELL-1,754,-4.69461,7.75,17.3752,ASSEMBLY_SHELL-1_ALLEL,TI,"shell < TI > < 5 section points > : SNEG, (fraction = -1.0)",112.15
C:/Users/srbb21/AppData/Local/Temp/rx18_gr30001521653382.841.odb,RELAX,Increment    105: Step Time =    1.000,SHELL-1,755,-4.69461,8.25,17.3752,ASSEMBLY_SHELL-1_ALLEL,TI,"shell < TI > < 5 section points > : SPOS, (fraction = 1.0)",136.969
C:/Users/srbb21/AppData/Local/Temp/rx18_gr30001521653382.841.odb,RELAX,Increment    105: Step Time =    1.000,SHELL-1,755,-4.69461,8.25,17.3752,ASSEMBLY_SHELL-1_ALLEL,TI,"shell < TI > < 5 section points > : SNEG, (fraction = -1.0)",108.444
C:/Users/srbb21/AppData/Local/Temp/rx18_gr30001521653382.841.odb,RELAX,Increment    105: Step Time =    1.000,SHELL-1,756,-4.69461,8.75,17.3752,ASSEMBLY_SHELL-1_ALLEL,TI,"shell < TI > < 5 section points > : SPOS, (fraction = 1.0)",140.171
C:/Users/srbb21/AppData/Local/Temp/rx18_gr30001521653382.841.odb,RELAX,Increment    105: Step Time =    1.000,SHELL-1,756,-4.69461,8.75,17.3752,ASSEMBLY_SHELL-1_ALLEL,TI,"shell < TI > < 5 section points > : SNEG, (fraction = -1.0)",104.523
C:/Users/srbb21/AppData/Local/Temp/rx18_gr30001521653382.841.odb,RELAX,Increment    105: Step Time =    1.000,SHELL-1,757,-4.21022,-8.75,17.4989,ASSEMBLY_SHELL-1_ALLEL,TI,"shell < TI > < 5 section points > : SNEG, (fraction = -1.0)",105.044
C:/Users/srbb21/AppData/Local/Temp/rx18_gr30001521653382.841.odb,RELAX,Increment    105: Step Time =    1.000,SHELL-1,757,-4.21022,-8.75,17.4989,ASSEMBLY_SHELL-1_ALLEL,TI,"shell < TI > < 5 section points > : SPOS, (fraction = 1.0)",140.071
C:/Users/srbb21/AppData/Local/Temp/rx18_gr30001521653382.841.odb,RELAX,Increment    105: Step Time =    1.000,SHELL-1,758,-4.21022,-8.25,17.4989,ASSEMBLY_SHELL-1_ALLEL,TI,"shell < TI > < 5 section points > : SPOS, (fraction = 1.0)",136.978
C:/Users/srbb21/AppData/Local/Temp/rx18_gr30001521653382.841.odb,RELAX,Increment    105: Step Time =    1.000,SHELL-1,758,-4.21022,-8.25,17.4989,ASSEMBLY_SHELL-1_ALLEL,TI,"shell < TI > < 5 section points > : SNEG, (fraction = -1.0)",108.8
C:/Users/srbb21/AppData/Local/Temp/rx18_gr30001521653382.841.odb,RELAX,Increment    105: Step Time =    1.000,SHELL-1,759,-4.21022,-7.75,17.4989,ASSEMBLY_SHELL-1_ALLEL,TI,"shell < TI > < 5 section points > : SPOS, (fraction = 1.0)",134.109
C:/Users/srbb21/AppData/Local/Temp/rx18_gr30001521653382.841.odb,RELAX,Increment    105: Step Time =    1.000,SHELL-1,759,-4.21022,-7.75,17.4989,ASSEMBLY_SHELL-1_ALLEL,TI,"shell < TI > < 5 section points > : SNEG, (fraction = -1.0)",112.339
C:/Users/srbb21/AppData/Local/Temp/rx18_gr30001521653382.841.odb,RELAX,Increment    105: Step Time =    1.000,SHELL-1,760,-4.21022,-7.25,17.4989,ASSEMBLY_SHELL-1_ALLEL,TI,"shell < TI > < 5 section points > : SPOS, (fraction = 1.0)",131.47
C:/Users/srbb21/AppData/Local/Temp/rx18_gr30001521653382.841.odb,RELAX,Increment    105: Step Time =    1.000,SHELL-1,760,-4.21022,-7.25,17.4989,ASSEMBLY_SHELL-1_ALLEL,TI,"shell < TI > < 5 section points > : SNEG, (fraction = -1.0)",115.615
C:/Users/srbb21/AppData/Local/Temp/rx18_gr30001521653382.841.odb,RELAX,Increment    105: Step Time =    1.000,SHELL-1,761,-4.21022,-6.75,17.4989,ASSEMBLY_SHELL-1_ALLEL,TI,"shell < TI > < 5 section points > : SNEG, (fraction = -1.0)",118.588
C:/Users/srbb21/AppData/Local/Temp/rx18_gr30001521653382.841.odb,RELAX,Increment    105: Step Time =    1.000,SHELL-1,761,-4.21022,-6.75,17.4989,ASSEMBLY_SHELL-1_ALLEL,TI,"shell < TI > < 5 section points > : SPOS, (fraction = 1.0)",129.073
C:/Users/srbb21/AppData/Local/Temp/rx18_gr30001521653382.841.odb,RELAX,Increment    105: Step Time =    1.000,SHELL-1,762,-4.21022,-6.25,17.4989,ASSEMBLY_SHELL-1_ALLEL,TI,"shell < TI > < 5 section points > : SPOS, (fraction = 1.0)",126.919
C:/Users/srbb21/AppData/Local/Temp/rx18_gr30001521653382.841.odb,RELAX,Increment    105: Step Time =    1.000,SHELL-1,762,-4.21022,-6.25,17.4989,ASSEMBLY_SHELL-1_ALLEL,TI,"shell < TI > < 5 section points > : SNEG, (fraction = -1.0)",121.23
C:/Users/srbb21/AppData/Local/Temp/rx18_gr30001521653382.841.odb,RELAX,Increment    105: Step Time =    1.000,SHELL-1,763,-4.21022,-5.75,17.4989,ASSEMBLY_SHELL-1_ALLEL,TI,"shell < TI > < 5 section points > : SPOS, (fraction = 1.0)",125.008
C:/Users/srbb21/AppData/Local/Temp/rx18_gr30001521653382.841.odb,RELAX,Increment    105: Step Time =    1.000,SHELL-1,763,-4.21022,-5.75,17.4989,ASSEMBLY_SHELL-1_ALLEL,TI,"shell < TI > < 5 section points > : SNEG, (fraction = -1.0)",123.522
C:/Users/srbb21/AppData/Local/Temp/rx18_gr30001521653382.841.odb,RELAX,Increment    105: Step Time =    1.000,SHELL-1,764,-4.21022,-5.25,17.4989,ASSEMBLY_SHELL-1_ALLEL,TI,"shell < TI > < 5 section points > : SPOS, (fraction = 1.0)",123.334
C:/Users/srbb21/AppData/Local/Temp/rx18_gr30001521653382.841.odb,RELAX,Increment    105: Step Time =    1.000,SHELL-1,764,-4.21022,-5.25,17.4989,ASSEMBLY_SHELL-1_ALLEL,TI,"shell < TI > < 5 section points > : SNEG, (fraction = -1.0)",125.464
C:/Users/srbb21/AppData/Local/Temp/rx18_gr30001521653382.841.odb,RELAX,Increment    105: Step Time =    1.000,SHELL-1,765,-4.21022,-4.75,17.4989,ASSEMBLY_SHELL-1_ALLEL,TI,"shell < TI > < 5 section points > : SPOS, (fraction = 1.0)",121.886
C:/Users/srbb21/AppData/Local/Temp/rx18_gr30001521653382.841.odb,RELAX,Increment    105: Step Time =    1.000,SHELL-1,765,-4.21022,-4.75,17.4989,ASSEMBLY_SHELL-1_ALLEL,TI,"shell < TI > < 5 section points > : SNEG, (fraction = -1.0)",127.066
C:/Users/srbb21/AppData/Local/Temp/rx18_gr30001521653382.841.odb,RELAX,Increment    105: Step Time =    1.000,SHELL-1,766,-4.21022,-4.25,17.4989,ASSEMBLY_SHELL-1_ALLEL,TI,"shell < TI > < 5 section points > : SNEG, (fraction = -1.0)",128.353
C:/Users/srbb21/AppData/Local/Temp/rx18_gr30001521653382.841.odb,RELAX,Increment    105: Step Time =    1.000,SHELL-1,766,-4.21022,-4.25,17.4989,ASSEMBLY_SHELL-1_ALLEL,TI,"shell < TI > < 5 section points > : SPOS, (fraction = 1.0)",120.653
C:/Users/srbb21/AppData/Local/Temp/rx18_gr30001521653382.841.odb,RELAX,Increment    105: Step Time =    1.000,SHELL-1,767,-4.21022,-3.75,17.4989,ASSEMBLY_SHELL-1_ALLEL,TI,"shell < TI > < 5 section points > : SPOS, (fraction = 1.0)",119.619
C:/Users/srbb21/AppData/Local/Temp/rx18_gr30001521653382.841.odb,RELAX,Increment    105: Step Time =    1.000,SHELL-1,767,-4.21022,-3.75,17.4989,ASSEMBLY_SHELL-1_ALLEL,TI,"shell < TI > < 5 section points > : SNEG, (fraction = -1.0)",129.357
C:/Users/srbb21/AppData/Local/Temp/rx18_gr30001521653382.841.odb,RELAX,Increment    105: Step Time =    1.000,SHELL-1,768,-4.21022,-3.25,17.4989,ASSEMBLY_SHELL-1_ALLEL,TI,"shell < TI > < 5 section points > : SPOS, (fraction = 1.0)",118.77
C:/Users/srbb21/AppData/Local/Temp/rx18_gr30001521653382.841.odb,RELAX,Increment    105: Step Time =    1.000,SHELL-1,768,-4.21022,-3.25,17.4989,ASSEMBLY_SHELL-1_ALLEL,TI,"shell < TI > < 5 section points > : SNEG, (fraction = -1.0)",130.117
C:/Users/srbb21/AppData/Local/Temp/rx18_gr30001521653382.841.odb,RELAX,Increment    105: Step Time =    1.000,SHELL-1,769,-4.21022,-2.75,17.4989,ASSEMBLY_SHELL-1_ALLEL,TI,"shell < TI > < 5 section points > : SPOS, (fraction = 1.0)",118.086
C:/Users/srbb21/AppData/Local/Temp/rx18_gr30001521653382.841.odb,RELAX,Increment    105: Step Time =    1.000,SHELL-1,769,-4.21022,-2.75,17.4989,ASSEMBLY_SHELL-1_ALLEL,TI,"shell < TI > < 5 section points > : SNEG, (fraction = -1.0)",130.673
C:/Users/srbb21/AppData/Local/Temp/rx18_gr30001521653382.841.odb,RELAX,Increment    105: Step Time =    1.000,SHELL-1,770,-4.21022,-2.25,17.4989,ASSEMBLY_SHELL-1_ALLEL,TI,"shell < TI > < 5 section points > : SNEG, (fraction = -1.0)",131.066
C:/Users/srbb21/AppData/Local/Temp/rx18_gr30001521653382.841.odb,RELAX,Increment    105: Step Time =    1.000,SHELL-1,770,-4.21022,-2.25,17.4989,ASSEMBLY_SHELL-1_ALLEL,TI,"shell < TI > < 5 section points > : SPOS, (fraction = 1.0)",117.552
C:/Users/srbb21/AppData/Local/Temp/rx18_gr30001521653382.841.odb,RELAX,Increment    105: Step Time =    1.000,SHELL-1,771,-4.21022,-1.75,17.4989,ASSEMBLY_SHELL-1_ALLEL,TI,"shell < TI > < 5 section points > : SPOS, (fraction = 1.0)",117.15
C:/Users/srbb21/AppData/Local/Temp/rx18_gr30001521653382.841.odb,RELAX,Increment    105: Step Time =    1.000,SHELL-1,771,-4.21022,-1.75,17.4989,ASSEMBLY_SHELL-1_ALLEL,TI,"shell < TI > < 5 section points > : SNEG, (fraction = -1.0)",131.331
C:/Users/srbb21/AppData/Local/Temp/rx18_gr30001521653382.841.odb,RELAX,Increment    105: Step Time =    1.000,SHELL-1,772,-4.21022,-1.25,17.4989,ASSEMBLY_SHELL-1_ALLEL,TI,"shell < TI > < 5 section points > : SPOS, (fraction = 1.0)",116.864
C:/Users/srbb21/AppData/Local/Temp/rx18_gr30001521653382.841.odb,RELAX,Increment    105: Step Time =    1.000,SHELL-1,772,-4.21022,-1.25,17.4989,ASSEMBLY_SHELL-1_ALLEL,TI,"shell < TI > < 5 section points > : SNEG, (fraction = -1.0)",131.502
C:/Users/srbb21/AppData/Local/Temp/rx18_gr30001521653382.841.odb,RELAX,Increment    105: Step Time =    1.000,SHELL-1,773,-4.21022,-0.75,17.4989,ASSEMBLY_SHELL-1_ALLEL,TI,"shell < TI > < 5 section points > : SPOS, (fraction = 1.0)",116.681
C:/Users/srbb21/AppData/Local/Temp/rx18_gr30001521653382.841.odb,RELAX,Increment    105: Step Time =    1.000,SHELL-1,773,-4.21022,-0.75,17.4989,ASSEMBLY_SHELL-1_ALLEL,TI,"shell < TI > < 5 section points > : SNEG, (fraction = -1.0)",131.601
C:/Users/srbb21/AppData/Local/Temp/rx18_gr30001521653382.841.odb,RELAX,Increment    105: Step Time =    1.000,SHELL-1,774,-4.21022,-0.25,17.4989,ASSEMBLY_SHELL-1_ALLEL,TI,"shell < TI > < 5 section points > : SNEG, (fraction = -1.0)",131.646
C:/Users/srbb21/AppData/Local/Temp/rx18_gr30001521653382.841.odb,RELAX,Increment    105: Step Time =    1.000,SHELL-1,774,-4.21022,-0.25,17.4989,ASSEMBLY_SHELL-1_ALLEL,TI,"shell < TI > < 5 section points > : SPOS, (fraction = 1.0)",116.592
C:/Users/srbb21/AppData/Local/Temp/rx18_gr30001521653382.841.odb,RELAX,Increment    105: Step Time =    1.000,SHELL-1,775,-4.21022,0.25,17.4989,ASSEMBLY_SHELL-1_ALLEL,TI,"shell < TI > < 5 section points > : SPOS, (fraction = 1.0)",116.592
C:/Users/srbb21/AppData/Local/Temp/rx18_gr30001521653382.841.odb,RELAX,Increment    105: Step Time =    1.000,SHELL-1,775,-4.21022,0.25,17.4989,ASSEMBLY_SHELL-1_ALLEL,TI,"shell < TI > < 5 section points > : SNEG, (fraction = -1.0)",131.646
C:/Users/srbb21/AppData/Local/Temp/rx18_gr30001521653382.841.odb,RELAX,Increment    105: Step Time =    1.000,SHELL-1,776,-4.21022,0.75,17.4989,ASSEMBLY_SHELL-1_ALLEL,TI,"shell < TI > < 5 section points > : SPOS, (fraction = 1.0)",116.681
C:/Users/srbb21/AppData/Local/Temp/rx18_gr30001521653382.841.odb,RELAX,Increment    105: Step Time =    1.000,SHELL-1,776,-4.21022,0.75,17.4989,ASSEMBLY_SHELL-1_ALLEL,TI,"shell < TI > < 5 section points > : SNEG, (fraction = -1.0)",131.601
C:/Users/srbb21/AppData/Local/Temp/rx18_gr30001521653382.841.odb,RELAX,Increment    105: Step Time =    1.000,SHELL-1,777,-4.21022,1.25,17.4989,ASSEMBLY_SHELL-1_ALLEL,TI,"shell < TI > < 5 section points > : SPOS, (fraction = 1.0)",116.864
C:/Users/srbb21/AppData/Local/Temp/rx18_gr30001521653382.841.odb,RELAX,Increment    105: Step Time =    1.000,SHELL-1,777,-4.21022,1.25,17.4989,ASSEMBLY_SHELL-1_ALLEL,TI,"shell < TI > < 5 section points > : SNEG, (fraction = -1.0)",131.502
C:/Users/srbb21/AppData/Local/Temp/rx18_gr30001521653382.841.odb,RELAX,Increment    105: Step Time =    1.000,SHELL-1,778,-4.21022,1.75,17.4989,ASSEMBLY_SHELL-1_ALLEL,TI,"shell < TI > < 5 section points > : SNEG, (fraction = -1.0)",131.331
C:/Users/srbb21/AppData/Local/Temp/rx18_gr30001521653382.841.odb,RELAX,Increment    105: Step Time =    1.000,SHELL-1,778,-4.21022,1.75,17.4989,ASSEMBLY_SHELL-1_ALLEL,TI,"shell < TI > < 5 section points > : SPOS, (fraction = 1.0)",117.15
C:/Users/srbb21/AppData/Local/Temp/rx18_gr30001521653382.841.odb,RELAX,Increment    105: Step Time =    1.000,SHELL-1,779,-4.21022,2.25,17.4989,ASSEMBLY_SHELL-1_ALLEL,TI,"shell < TI > < 5 section points > : SPOS, (fraction = 1.0)",117.552
C:/Users/srbb21/AppData/Local/Temp/rx18_gr30001521653382.841.odb,RELAX,Increment    105: Step Time =    1.000,SHELL-1,779,-4.21022,2.25,17.4989,ASSEMBLY_SHELL-1_ALLEL,TI,"shell < TI > < 5 section points > : SNEG, (fraction = -1.0)",131.066
C:/Users/srbb21/AppData/Local/Temp/rx18_gr30001521653382.841.odb,RELAX,Increment    105: Step Time =    1.000,SHELL-1,780,-4.21022,2.75,17.4989,ASSEMBLY_SHELL-1_ALLEL,TI,"shell < TI > < 5 section points > : SPOS, (fraction = 1.0)",118.086
C:/Users/srbb21/AppData/Local/Temp/rx18_gr30001521653382.841.odb,RELAX,Increment    105: Step Time =    1.000,SHELL-1,780,-4.21022,2.75,17.4989,ASSEMBLY_SHELL-1_ALLEL,TI,"shell < TI > < 5 section points > : SNEG, (fraction = -1.0)",130.673
C:/Users/srbb21/AppData/Local/Temp/rx18_gr30001521653382.841.odb,RELAX,Increment    105: Step Time =    1.000,SHELL-1,781,-4.21022,3.25,17.4989,ASSEMBLY_SHELL-1_ALLEL,TI,"shell < TI > < 5 section points > : SPOS, (fraction = 1.0)",118.77
C:/Users/srbb21/AppData/Local/Temp/rx18_gr30001521653382.841.odb,RELAX,Increment    105: Step Time =    1.000,SHELL-1,781,-4.21022,3.25,17.4989,ASSEMBLY_SHELL-1_ALLEL,TI,"shell < TI > < 5 section points > : SNEG, (fraction = -1.0)",130.117
C:/Users/srbb21/AppData/Local/Temp/rx18_gr30001521653382.841.odb,RELAX,Increment    105: Step Time =    1.000,SHELL-1,782,-4.21022,3.75,17.4989,ASSEMBLY_SHELL-1_ALLEL,TI,"shell < TI > < 5 section points > : SPOS, (fraction = 1.0)",119.619
C:/Users/srbb21/AppData/Local/Temp/rx18_gr30001521653382.841.odb,RELAX,Increment    105: Step Time =    1.000,SHELL-1,782,-4.21022,3.75,17.4989,ASSEMBLY_SHELL-1_ALLEL,TI,"shell < TI > < 5 section points > : SNEG, (fraction = -1.0)",129.357
C:/Users/srbb21/AppData/Local/Temp/rx18_gr30001521653382.841.odb,RELAX,Increment    105: Step Time =    1.000,SHELL-1,783,-4.21022,4.25,17.4989,ASSEMBLY_SHELL-1_ALLEL,TI,"shell < TI > < 5 section points > : SNEG, (fraction = -1.0)",128.353
C:/Users/srbb21/AppData/Local/Temp/rx18_gr30001521653382.841.odb,RELAX,Increment    105: Step Time =    1.000,SHELL-1,783,-4.21022,4.25,17.4989,ASSEMBLY_SHELL-1_ALLEL,TI,"shell < TI > < 5 section points > : SPOS, (fraction = 1.0)",120.653
C:/Users/srbb21/AppData/Local/Temp/rx18_gr30001521653382.841.odb,RELAX,Increment    105: Step Time =    1.000,SHELL-1,784,-4.21022,4.75,17.4989,ASSEMBLY_SHELL-1_ALLEL,TI,"shell < TI > < 5 section points > : SPOS, (fraction = 1.0)",121.886
C:/Users/srbb21/AppData/Local/Temp/rx18_gr30001521653382.841.odb,RELAX,Increment    105: Step Time =    1.000,SHELL-1,784,-4.21022,4.75,17.4989,ASSEMBLY_SHELL-1_ALLEL,TI,"shell < TI > < 5 section points > : SNEG, (fraction = -1.0)",127.066
C:/Users/srbb21/AppData/Local/Temp/rx18_gr30001521653382.841.odb,RELAX,Increment    105: Step Time =    1.000,SHELL-1,785,-4.21022,5.25,17.4989,ASSEMBLY_SHELL-1_ALLEL,TI,"shell < TI > < 5 section points > : SPOS, (fraction = 1.0)",123.334
C:/Users/srbb21/AppData/Local/Temp/rx18_gr30001521653382.841.odb,RELAX,Increment    105: Step Time =    1.000,SHELL-1,785,-4.21022,5.25,17.4989,ASSEMBLY_SHELL-1_ALLEL,TI,"shell < TI > < 5 section points > : SNEG, (fraction = -1.0)",125.464
C:/Users/srbb21/AppData/Local/Temp/rx18_gr30001521653382.841.odb,RELAX,Increment    105: Step Time =    1.000,SHELL-1,786,-4.21022,5.75,17.4989,ASSEMBLY_SHELL-1_ALLEL,TI,"shell < TI > < 5 section points > : SPOS, (fraction = 1.0)",125.008
C:/Users/srbb21/AppData/Local/Temp/rx18_gr30001521653382.841.odb,RELAX,Increment    105: Step Time =    1.000,SHELL-1,786,-4.21022,5.75,17.4989,ASSEMBLY_SHELL-1_ALLEL,TI,"shell < TI > < 5 section points > : SNEG, (fraction = -1.0)",123.522
C:/Users/srbb21/AppData/Local/Temp/rx18_gr30001521653382.841.odb,RELAX,Increment    105: Step Time =    1.000,SHELL-1,787,-4.21022,6.25,17.4989,ASSEMBLY_SHELL-1_ALLEL,TI,"shell < TI > < 5 section points > : SNEG, (fraction = -1.0)",121.23
C:/Users/srbb21/AppData/Local/Temp/rx18_gr30001521653382.841.odb,RELAX,Increment    105: Step Time =    1.000,SHELL-1,787,-4.21022,6.25,17.4989,ASSEMBLY_SHELL-1_ALLEL,TI,"shell < TI > < 5 section points > : SPOS, (fraction = 1.0)",126.919
C:/Users/srbb21/AppData/Local/Temp/rx18_gr30001521653382.841.odb,RELAX,Increment    105: Step Time =    1.000,SHELL-1,788,-4.21022,6.75,17.4989,ASSEMBLY_SHELL-1_ALLEL,TI,"shell < TI > < 5 section points > : SPOS, (fraction = 1.0)",129.073
C:/Users/srbb21/AppData/Local/Temp/rx18_gr30001521653382.841.odb,RELAX,Increment    105: Step Time =    1.000,SHELL-1,788,-4.21022,6.75,17.4989,ASSEMBLY_SHELL-1_ALLEL,TI,"shell < TI > < 5 section points > : SNEG, (fraction = -1.0)",118.588
C:/Users/srbb21/AppData/Local/Temp/rx18_gr30001521653382.841.odb,RELAX,Increment    105: Step Time =    1.000,SHELL-1,789,-4.21022,7.25,17.4989,ASSEMBLY_SHELL-1_ALLEL,TI,"shell < TI > < 5 section points > : SPOS, (fraction = 1.0)",131.47
C:/Users/srbb21/AppData/Local/Temp/rx18_gr30001521653382.841.odb,RELAX,Increment    105: Step Time =    1.000,SHELL-1,789,-4.21022,7.25,17.4989,ASSEMBLY_SHELL-1_ALLEL,TI,"shell < TI > < 5 section points > : SNEG, (fraction = -1.0)",115.615
C:/Users/srbb21/AppData/Local/Temp/rx18_gr30001521653382.841.odb,RELAX,Increment    105: Step Time =    1.000,SHELL-1,790,-4.21022,7.75,17.4989,ASSEMBLY_SHELL-1_ALLEL,TI,"shell < TI > < 5 section points > : SPOS, (fraction = 1.0)",134.109
C:/Users/srbb21/AppData/Local/Temp/rx18_gr30001521653382.841.odb,RELAX,Increment    105: Step Time =    1.000,SHELL-1,790,-4.21022,7.75,17.4989,ASSEMBLY_SHELL-1_ALLEL,TI,"shell < TI > < 5 section points > : SNEG, (fraction = -1.0)",112.339
C:/Users/srbb21/AppData/Local/Temp/rx18_gr30001521653382.841.odb,RELAX,Increment    105: Step Time =    1.000,SHELL-1,791,-4.21022,8.25,17.4989,ASSEMBLY_SHELL-1_ALLEL,TI,"shell < TI > < 5 section points > : SNEG, (fraction = -1.0)",108.8
C:/Users/srbb21/AppData/Local/Temp/rx18_gr30001521653382.841.odb,RELAX,Increment    105: Step Time =    1.000,SHELL-1,791,-4.21022,8.25,17.4989,ASSEMBLY_SHELL-1_ALLEL,TI,"shell < TI > < 5 section points > : SPOS, (fraction = 1.0)",136.978
C:/Users/srbb21/AppData/Local/Temp/rx18_gr30001521653382.841.odb,RELAX,Increment    105: Step Time =    1.000,SHELL-1,792,-4.21022,8.75,17.4989,ASSEMBLY_SHELL-1_ALLEL,TI,"shell < TI > < 5 section points > : SPOS, (fraction = 1.0)",140.071
C:/Users/srbb21/AppData/Local/Temp/rx18_gr30001521653382.841.odb,RELAX,Increment    105: Step Time =    1.000,SHELL-1,792,-4.21022,8.75,17.4989,ASSEMBLY_SHELL-1_ALLEL,TI,"shell < TI > < 5 section points > : SNEG, (fraction = -1.0)",105.044
C:/Users/srbb21/AppData/Local/Temp/rx18_gr30001521653382.841.odb,RELAX,Increment    105: Step Time =    1.000,SHELL-1,793,-3.72257,-8.75,17.6091,ASSEMBLY_SHELL-1_ALLEL,TI,"shell < TI > < 5 section points > : SPOS, (fraction = 1.0)",140.012
C:/Users/srbb21/AppData/Local/Temp/rx18_gr30001521653382.841.odb,RELAX,Increment    105: Step Time =    1.000,SHELL-1,793,-3.72257,-8.75,17.6091,ASSEMBLY_SHELL-1_ALLEL,TI,"shell < TI > < 5 section points > : SNEG, (fraction = -1.0)",105.489
C:/Users/srbb21/AppData/Local/Temp/rx18_gr30001521653382.841.odb,RELAX,Increment    105: Step Time =    1.000,SHELL-1,794,-3.72257,-8.25,17.6091,ASSEMBLY_SHELL-1_ALLEL,TI,"shell < TI > < 5 section points > : SPOS, (fraction = 1.0)",137.008
C:/Users/srbb21/AppData/Local/Temp/rx18_gr30001521653382.841.odb,RELAX,Increment    105: Step Time =    1.000,SHELL-1,794,-3.72257,-8.25,17.6091,ASSEMBLY_SHELL-1_ALLEL,TI,"shell < TI > < 5 section points > : SNEG, (fraction = -1.0)",109.108
C:/Users/srbb21/AppData/Local/Temp/rx18_gr30001521653382.841.odb,RELAX,Increment    105: Step Time =    1.000,SHELL-1,795,-3.72257,-7.75,17.6091,ASSEMBLY_SHELL-1_ALLEL,TI,"shell < TI > < 5 section points > : SNEG, (fraction = -1.0)",112.512
C:/Users/srbb21/AppData/Local/Temp/rx18_gr30001521653382.841.odb,RELAX,Increment    105: Step Time =    1.000,SHELL-1,795,-3.72257,-7.75,17.6091,ASSEMBLY_SHELL-1_ALLEL,TI,"shell < TI > < 5 section points > : SPOS, (fraction = 1.0)",134.225
C:/Users/srbb21/AppData/Local/Temp/rx18_gr30001521653382.841.odb,RELAX,Increment    105: Step Time =    1.000,SHELL-1,796,-3.72257,-7.25,17.6091,ASSEMBLY_SHELL-1_ALLEL,TI,"shell < TI > < 5 section points > : SPOS, (fraction = 1.0)",131.661
C:/Users/srbb21/AppData/Local/Temp/rx18_gr30001521653382.841.odb,RELAX,Increment    105: Step Time =    1.000,SHELL-1,796,-3.72257,-7.25,17.6091,ASSEMBLY_SHELL-1_ALLEL,TI,"shell < TI > < 5 section points > : SNEG, (fraction = -1.0)",115.663
C:/Users/srbb21/AppData/Local/Temp/rx18_gr30001521653382.841.odb,RELAX,Increment    105: Step Time =    1.000,SHELL-1,797,-3.72257,-6.75,17.6091,ASSEMBLY_SHELL-1_ALLEL,TI,"shell < TI > < 5 section points > : SPOS, (fraction = 1.0)",129.324
C:/Users/srbb21/AppData/Local/Temp/rx18_gr30001521653382.841.odb,RELAX,Increment    105: Step Time =    1.000,SHELL-1,797,-3.72257,-6.75,17.6091,ASSEMBLY_SHELL-1_ALLEL,TI,"shell < TI > < 5 section points > : SNEG, (fraction = -1.0)",118.534
C:/Users/srbb21/AppData/Local/Temp/rx18_gr30001521653382.841.odb,RELAX,Increment    105: Step Time =    1.000,SHELL-1,798,-3.72257,-6.25,17.6091,ASSEMBLY_SHELL-1_ALLEL,TI,"shell < TI > < 5 section points > : SPOS, (fraction = 1.0)",127.209
C:/Users/srbb21/AppData/Local/Temp/rx18_gr30001521653382.841.odb,RELAX,Increment    105: Step Time =    1.000,SHELL-1,798,-3.72257,-6.25,17.6091,ASSEMBLY_SHELL-1_ALLEL,TI,"shell < TI > < 5 section points > : SNEG, (fraction = -1.0)",121.097
C:/Users/srbb21/AppData/Local/Temp/rx18_gr30001521653382.841.odb,RELAX,Increment    105: Step Time =    1.000,SHELL-1,799,-3.72257,-5.75,17.6091,ASSEMBLY_SHELL-1_ALLEL,TI,"shell < TI > < 5 section points > : SNEG, (fraction = -1.0)",123.341
C:/Users/srbb21/AppData/Local/Temp/rx18_gr30001521653382.841.odb,RELAX,Increment    105: Step Time =    1.000,SHELL-1,799,-3.72257,-5.75,17.6091,ASSEMBLY_SHELL-1_ALLEL,TI,"shell < TI > < 5 section points > : SPOS, (fraction = 1.0)",125.315
C:/Users/srbb21/AppData/Local/Temp/rx18_gr30001521653382.841.odb,RELAX,Increment    105: Step Time =    1.000,SHELL-1,800,-3.72257,-5.25,17.6091,ASSEMBLY_SHELL-1_ALLEL,TI,"shell < TI > < 5 section points > : SPOS, (fraction = 1.0)",123.634
C:/Users/srbb21/AppData/Local/Temp/rx18_gr30001521653382.841.odb,RELAX,Increment    105: Step Time =    1.000,SHELL-1,800,-3.72257,-5.25,17.6091,ASSEMBLY_SHELL-1_ALLEL,TI,"shell < TI > < 5 section points > : SNEG, (fraction = -1.0)",125.261
C:/Users/srbb21/AppData/Local/Temp/rx18_gr30001521653382.841.odb,RELAX,Increment    105: Step Time =    1.000,SHELL-1,801,-3.72257,-4.75,17.6091,ASSEMBLY_SHELL-1_ALLEL,TI,"shell < TI > < 5 section points > : SPOS, (fraction = 1.0)",122.158
C:/Users/srbb21/AppData/Local/Temp/rx18_gr30001521653382.841.odb,RELAX,Increment    105: Step Time =    1.000,SHELL-1,801,-3.72257,-4.75,17.6091,ASSEMBLY_SHELL-1_ALLEL,TI,"shell < TI > < 5 section points > : SNEG, (fraction = -1.0)",126.867
C:/Users/srbb21/AppData/Local/Temp/rx18_gr30001521653382.841.odb,RELAX,Increment    105: Step Time =    1.000,SHELL-1,802,-3.72257,-4.25,17.6091,ASSEMBLY_SHELL-1_ALLEL,TI,"shell < TI > < 5 section points > : SPOS, (fraction = 1.0)",120.877
C:/Users/srbb21/AppData/Local/Temp/rx18_gr30001521653382.841.odb,RELAX,Increment    105: Step Time =    1.000,SHELL-1,802,-3.72257,-4.25,17.6091,ASSEMBLY_SHELL-1_ALLEL,TI,"shell < TI > < 5 section points > : SNEG, (fraction = -1.0)",128.177
C:/Users/srbb21/AppData/Local/Temp/rx18_gr30001521653382.841.odb,RELAX,Increment    105: Step Time =    1.000,SHELL-1,803,-3.72257,-3.75,17.6091,ASSEMBLY_SHELL-1_ALLEL,TI,"shell < TI > < 5 section points > : SNEG, (fraction = -1.0)",129.22
C:/Users/srbb21/AppData/Local/Temp/rx18_gr30001521653382.841.odb,RELAX,Increment    105: Step Time =    1.000,SHELL-1,803,-3.72257,-3.75,17.6091,ASSEMBLY_SHELL-1_ALLEL,TI,"shell < TI > < 5 section points > : SPOS, (fraction = 1.0)",119.781
C:/Users/srbb21/AppData/Local/Temp/rx18_gr30001521653382.841.odb,RELAX,Increment    105: Step Time =    1.000,SHELL-1,804,-3.72257,-3.25,17.6091,ASSEMBLY_SHELL-1_ALLEL,TI,"shell < TI > < 5 section points > : SPOS, (fraction = 1.0)",118.858
C:/Users/srbb21/AppData/Local/Temp/rx18_gr30001521653382.841.odb,RELAX,Increment    105: Step Time =    1.000,SHELL-1,804,-3.72257,-3.25,17.6091,ASSEMBLY_SHELL-1_ALLEL,TI,"shell < TI > < 5 section points > : SNEG, (fraction = -1.0)",130.026
C:/Users/srbb21/AppData/Local/Temp/rx18_gr30001521653382.841.odb,RELAX,Increment    105: Step Time =    1.000,SHELL-1,805,-3.72257,-2.75,17.6091,ASSEMBLY_SHELL-1_ALLEL,TI,"shell < TI > < 5 section points > : SPOS, (fraction = 1.0)",118.099
C:/Users/srbb21/AppData/Local/Temp/rx18_gr30001521653382.841.odb,RELAX,Increment    105: Step Time =    1.000,SHELL-1,805,-3.72257,-2.75,17.6091,ASSEMBLY_SHELL-1_ALLEL,TI,"shell < TI > < 5 section points > : SNEG, (fraction = -1.0)",130.634
C:/Users/srbb21/AppData/Local/Temp/rx18_gr30001521653382.841.odb,RELAX,Increment    105: Step Time =    1.000,SHELL-1,806,-3.72257,-2.25,17.6091,ASSEMBLY_SHELL-1_ALLEL,TI,"shell < TI > < 5 section points > : SPOS, (fraction = 1.0)",117.489
C:/Users/srbb21/AppData/Local/Temp/rx18_gr30001521653382.841.odb,RELAX,Increment    105: Step Time =    1.000,SHELL-1,806,-3.72257,-2.25,17.6091,ASSEMBLY_SHELL-1_ALLEL,TI,"shell < TI > < 5 section points > : SNEG, (fraction = -1.0)",131.076
C:/Users/srbb21/AppData/Local/Temp/rx18_gr30001521653382.841.odb,RELAX,Increment    105: Step Time =    1.000,SHELL-1,807,-3.72257,-1.75,17.6091,ASSEMBLY_SHELL-1_ALLEL,TI,"shell < TI > < 5 section points > : SNEG, (fraction = -1.0)",131.387
C:/Users/srbb21/AppData/Local/Temp/rx18_gr30001521653382.841.odb,RELAX,Increment    105: Step Time =    1.000,SHELL-1,807,-3.72257,-1.75,17.6091,ASSEMBLY_SHELL-1_ALLEL,TI,"shell < TI > < 5 section points > : SPOS, (fraction = 1.0)",117.019
C:/Users/srbb21/AppData/Local/Temp/rx18_gr30001521653382.841.odb,RELAX,Increment    105: Step Time =    1.000,SHELL-1,808,-3.72257,-1.25,17.6091,ASSEMBLY_SHELL-1_ALLEL,TI,"shell < TI > < 5 section points > : SPOS, (fraction = 1.0)",116.677
C:/Users/srbb21/AppData/Local/Temp/rx18_gr30001521653382.841.odb,RELAX,Increment    105: Step Time =    1.000,SHELL-1,808,-3.72257,-1.25,17.6091,ASSEMBLY_SHELL-1_ALLEL,TI,"shell < TI > < 5 section points > : SNEG, (fraction = -1.0)",131.593
C:/Users/srbb21/AppData/Local/Temp/rx18_gr30001521653382.841.odb,RELAX,Increment    105: Step Time =    1.000,SHELL-1,809,-3.72257,-0.75,17.6091,ASSEMBLY_SHELL-1_ALLEL,TI,"shell < TI > < 5 section points > : SPOS, (fraction = 1.0)",116.454
C:/Users/srbb21/AppData/Local/Temp/rx18_gr30001521653382.841.odb,RELAX,Increment    105: Step Time =    1.000,SHELL-1,809,-3.72257,-0.75,17.6091,ASSEMBLY_SHELL-1_ALLEL,TI,"shell < TI > < 5 section points > : SNEG, (fraction = -1.0)",131.718
C:/Users/srbb21/AppData/Local/Temp/rx18_gr30001521653382.841.odb,RELAX,Increment    105: Step Time =    1.000,SHELL-1,810,-3.72257,-0.25,17.6091,ASSEMBLY_SHELL-1_ALLEL,TI,"shell < TI > < 5 section points > : SPOS, (fraction = 1.0)",116.345
C:/Users/srbb21/AppData/Local/Temp/rx18_gr30001521653382.841.odb,RELAX,Increment    105: Step Time =    1.000,SHELL-1,810,-3.72257,-0.25,17.6091,ASSEMBLY_SHELL-1_ALLEL,TI,"shell < TI > < 5 section points > : SNEG, (fraction = -1.0)",131.777
C:/Users/srbb21/AppData/Local/Temp/rx18_gr30001521653382.841.odb,RELAX,Increment    105: Step Time =    1.000,SHELL-1,811,-3.72257,0.25,17.6091,ASSEMBLY_SHELL-1_ALLEL,TI,"shell < TI > < 5 section points > : SNEG, (fraction = -1.0)",131.777
C:/Users/srbb21/AppData/Local/Temp/rx18_gr30001521653382.841.odb,RELAX,Increment    105: Step Time =    1.000,SHELL-1,811,-3.72257,0.25,17.6091,ASSEMBLY_SHELL-1_ALLEL,TI,"shell < TI > < 5 section points > : SPOS, (fraction = 1.0)",116.345
C:/Users/srbb21/AppData/Local/Temp/rx18_gr30001521653382.841.odb,RELAX,Increment    105: Step Time =    1.000,SHELL-1,812,-3.72257,0.75,17.6091,ASSEMBLY_SHELL-1_ALLEL,TI,"shell < TI > < 5 section points > : SPOS, (fraction = 1.0)",116.454
C:/Users/srbb21/AppData/Local/Temp/rx18_gr30001521653382.841.odb,RELAX,Increment    105: Step Time =    1.000,SHELL-1,812,-3.72257,0.75,17.6091,ASSEMBLY_SHELL-1_ALLEL,TI,"shell < TI > < 5 section points > : SNEG, (fraction = -1.0)",131.718
C:/Users/srbb21/AppData/Local/Temp/rx18_gr30001521653382.841.odb,RELAX,Increment    105: Step Time =    1.000,SHELL-1,813,-3.72257,1.25,17.6091,ASSEMBLY_SHELL-1_ALLEL,TI,"shell < TI > < 5 section points > : SPOS, (fraction = 1.0)",116.677
C:/Users/srbb21/AppData/Local/Temp/rx18_gr30001521653382.841.odb,RELAX,Increment    105: Step Time =    1.000,SHELL-1,813,-3.72257,1.25,17.6091,ASSEMBLY_SHELL-1_ALLEL,TI,"shell < TI > < 5 section points > : SNEG, (fraction = -1.0)",131.593
C:/Users/srbb21/AppData/Local/Temp/rx18_gr30001521653382.841.odb,RELAX,Increment    105: Step Time =    1.000,SHELL-1,814,-3.72257,1.75,17.6091,ASSEMBLY_SHELL-1_ALLEL,TI,"shell < TI > < 5 section points > : SPOS, (fraction = 1.0)",117.019
C:/Users/srbb21/AppData/Local/Temp/rx18_gr30001521653382.841.odb,RELAX,Increment    105: Step Time =    1.000,SHELL-1,814,-3.72257,1.75,17.6091,ASSEMBLY_SHELL-1_ALLEL,TI,"shell < TI > < 5 section points > : SNEG, (fraction = -1.0)",131.387
C:/Users/srbb21/AppData/Local/Temp/rx18_gr30001521653382.841.odb,RELAX,Increment    105: Step Time =    1.000,SHELL-1,815,-3.72257,2.25,17.6091,ASSEMBLY_SHELL-1_ALLEL,TI,"shell < TI > < 5 section points > : SPOS, (fraction = 1.0)",117.489
C:/Users/srbb21/AppData/Local/Temp/rx18_gr30001521653382.841.odb,RELAX,Increment    105: Step Time =    1.000,SHELL-1,815,-3.72257,2.25,17.6091,ASSEMBLY_SHELL-1_ALLEL,TI,"shell < TI > < 5 section points > : SNEG, (fraction = -1.0)",131.076
C:/Users/srbb21/AppData/Local/Temp/rx18_gr30001521653382.841.odb,RELAX,Increment    105: Step Time =    1.000,SHELL-1,816,-3.72257,2.75,17.6091,ASSEMBLY_SHELL-1_ALLEL,TI,"shell < TI > < 5 section points > : SNEG, (fraction = -1.0)",130.634
C:/Users/srbb21/AppData/Local/Temp/rx18_gr30001521653382.841.odb,RELAX,Increment    105: Step Time =    1.000,SHELL-1,816,-3.72257,2.75,17.6091,ASSEMBLY_SHELL-1_ALLEL,TI,"shell < TI > < 5 section points > : SPOS, (fraction = 1.0)",118.099
C:/Users/srbb21/AppData/Local/Temp/rx18_gr30001521653382.841.odb,RELAX,Increment    105: Step Time =    1.000,SHELL-1,817,-3.72257,3.25,17.6091,ASSEMBLY_SHELL-1_ALLEL,TI,"shell < TI > < 5 section points > : SPOS, (fraction = 1.0)",118.858
C:/Users/srbb21/AppData/Local/Temp/rx18_gr30001521653382.841.odb,RELAX,Increment    105: Step Time =    1.000,SHELL-1,817,-3.72257,3.25,17.6091,ASSEMBLY_SHELL-1_ALLEL,TI,"shell < TI > < 5 section points > : SNEG, (fraction = -1.0)",130.026
C:/Users/srbb21/AppData/Local/Temp/rx18_gr30001521653382.841.odb,RELAX,Increment    105: Step Time =    1.000,SHELL-1,818,-3.72257,3.75,17.6091,ASSEMBLY_SHELL-1_ALLEL,TI,"shell < TI > < 5 section points > : SPOS, (fraction = 1.0)",119.781
C:/Users/srbb21/AppData/Local/Temp/rx18_gr30001521653382.841.odb,RELAX,Increment    105: Step Time =    1.000,SHELL-1,818,-3.72257,3.75,17.6091,ASSEMBLY_SHELL-1_ALLEL,TI,"shell < TI > < 5 section points > : SNEG, (fraction = -1.0)",129.22
C:/Users/srbb21/AppData/Local/Temp/rx18_gr30001521653382.841.odb,RELAX,Increment    105: Step Time =    1.000,SHELL-1,819,-3.72257,4.25,17.6091,ASSEMBLY_SHELL-1_ALLEL,TI,"shell < TI > < 5 section points > : SPOS, (fraction = 1.0)",120.877
C:/Users/srbb21/AppData/Local/Temp/rx18_gr30001521653382.841.odb,RELAX,Increment    105: Step Time =    1.000,SHELL-1,819,-3.72257,4.25,17.6091,ASSEMBLY_SHELL-1_ALLEL,TI,"shell < TI > < 5 section points > : SNEG, (fraction = -1.0)",128.177
C:/Users/srbb21/AppData/Local/Temp/rx18_gr30001521653382.841.odb,RELAX,Increment    105: Step Time =    1.000,SHELL-1,820,-3.72257,4.75,17.6091,ASSEMBLY_SHELL-1_ALLEL,TI,"shell < TI > < 5 section points > : SNEG, (fraction = -1.0)",126.867
C:/Users/srbb21/AppData/Local/Temp/rx18_gr30001521653382.841.odb,RELAX,Increment    105: Step Time =    1.000,SHELL-1,820,-3.72257,4.75,17.6091,ASSEMBLY_SHELL-1_ALLEL,TI,"shell < TI > < 5 section points > : SPOS, (fraction = 1.0)",122.158
C:/Users/srbb21/AppData/Local/Temp/rx18_gr30001521653382.841.odb,RELAX,Increment    105: Step Time =    1.000,SHELL-1,821,-3.72257,5.25,17.6091,ASSEMBLY_SHELL-1_ALLEL,TI,"shell < TI > < 5 section points > : SPOS, (fraction = 1.0)",123.634
C:/Users/srbb21/AppData/Local/Temp/rx18_gr30001521653382.841.odb,RELAX,Increment    105: Step Time =    1.000,SHELL-1,821,-3.72257,5.25,17.6091,ASSEMBLY_SHELL-1_ALLEL,TI,"shell < TI > < 5 section points > : SNEG, (fraction = -1.0)",125.261
C:/Users/srbb21/AppData/Local/Temp/rx18_gr30001521653382.841.odb,RELAX,Increment    105: Step Time =    1.000,SHELL-1,822,-3.72257,5.75,17.6091,ASSEMBLY_SHELL-1_ALLEL,TI,"shell < TI > < 5 section points > : SPOS, (fraction = 1.0)",125.315
C:/Users/srbb21/AppData/Local/Temp/rx18_gr30001521653382.841.odb,RELAX,Increment    105: Step Time =    1.000,SHELL-1,822,-3.72257,5.75,17.6091,ASSEMBLY_SHELL-1_ALLEL,TI,"shell < TI > < 5 section points > : SNEG, (fraction = -1.0)",123.341
C:/Users/srbb21/AppData/Local/Temp/rx18_gr30001521653382.841.odb,RELAX,Increment    105: Step Time =    1.000,SHELL-1,823,-3.72257,6.25,17.6091,ASSEMBLY_SHELL-1_ALLEL,TI,"shell < TI > < 5 section points > : SPOS, (fraction = 1.0)",127.209
C:/Users/srbb21/AppData/Local/Temp/rx18_gr30001521653382.841.odb,RELAX,Increment    105: Step Time =    1.000,SHELL-1,823,-3.72257,6.25,17.6091,ASSEMBLY_SHELL-1_ALLEL,TI,"shell < TI > < 5 section points > : SNEG, (fraction = -1.0)",121.097
C:/Users/srbb21/AppData/Local/Temp/rx18_gr30001521653382.841.odb,RELAX,Increment    105: Step Time =    1.000,SHELL-1,824,-3.72257,6.75,17.6091,ASSEMBLY_SHELL-1_ALLEL,TI,"shell < TI > < 5 section points > : SNEG, (fraction = -1.0)",118.534
C:/Users/srbb21/AppData/Local/Temp/rx18_gr30001521653382.841.odb,RELAX,Increment    105: Step Time =    1.000,SHELL-1,824,-3.72257,6.75,17.6091,ASSEMBLY_SHELL-1_ALLEL,TI,"shell < TI > < 5 section points > : SPOS, (fraction = 1.0)",129.324
C:/Users/srbb21/AppData/Local/Temp/rx18_gr30001521653382.841.odb,RELAX,Increment    105: Step Time =    1.000,SHELL-1,825,-3.72257,7.25,17.6091,ASSEMBLY_SHELL-1_ALLEL,TI,"shell < TI > < 5 section points > : SPOS, (fraction = 1.0)",131.661
C:/Users/srbb21/AppData/Local/Temp/rx18_gr30001521653382.841.odb,RELAX,Increment    105: Step Time =    1.000,SHELL-1,825,-3.72257,7.25,17.6091,ASSEMBLY_SHELL-1_ALLEL,TI,"shell < TI > < 5 section points > : SNEG, (fraction = -1.0)",115.663
C:/Users/srbb21/AppData/Local/Temp/rx18_gr30001521653382.841.odb,RELAX,Increment    105: Step Time =    1.000,SHELL-1,826,-3.72257,7.75,17.6091,ASSEMBLY_SHELL-1_ALLEL,TI,"shell < TI > < 5 section points > : SPOS, (fraction = 1.0)",134.225
C:/Users/srbb21/AppData/Local/Temp/rx18_gr30001521653382.841.odb,RELAX,Increment    105: Step Time =    1.000,SHELL-1,826,-3.72257,7.75,17.6091,ASSEMBLY_SHELL-1_ALLEL,TI,"shell < TI > < 5 section points > : SNEG, (fraction = -1.0)",112.512
C:/Users/srbb21/AppData/Local/Temp/rx18_gr30001521653382.841.odb,RELAX,Increment    105: Step Time =    1.000,SHELL-1,827,-3.72257,8.25,17.6091,ASSEMBLY_SHELL-1_ALLEL,TI,"shell < TI > < 5 section points > : SPOS, (fraction = 1.0)",137.008
C:/Users/srbb21/AppData/Local/Temp/rx18_gr30001521653382.841.odb,RELAX,Increment    105: Step Time =    1.000,SHELL-1,827,-3.72257,8.25,17.6091,ASSEMBLY_SHELL-1_ALLEL,TI,"shell < TI > < 5 section points > : SNEG, (fraction = -1.0)",109.108
C:/Users/srbb21/AppData/Local/Temp/rx18_gr30001521653382.841.odb,RELAX,Increment    105: Step Time =    1.000,SHELL-1,828,-3.72257,8.75,17.6091,ASSEMBLY_SHELL-1_ALLEL,TI,"shell < TI > < 5 section points > : SNEG, (fraction = -1.0)",105.489
C:/Users/srbb21/AppData/Local/Temp/rx18_gr30001521653382.841.odb,RELAX,Increment    105: Step Time =    1.000,SHELL-1,828,-3.72257,8.75,17.6091,ASSEMBLY_SHELL-1_ALLEL,TI,"shell < TI > < 5 section points > : SPOS, (fraction = 1.0)",140.012
C:/Users/srbb21/AppData/Local/Temp/rx18_gr30001521653382.841.odb,RELAX,Increment    105: Step Time =    1.000,SHELL-1,829,-3.23206,-8.75,17.7057,ASSEMBLY_SHELL-1_ALLEL,TI,"shell < TI > < 5 section points > : SPOS, (fraction = 1.0)",139.982
C:/Users/srbb21/AppData/Local/Temp/rx18_gr30001521653382.841.odb,RELAX,Increment    105: Step Time =    1.000,SHELL-1,829,-3.23206,-8.75,17.7057,ASSEMBLY_SHELL-1_ALLEL,TI,"shell < TI > < 5 section points > : SNEG, (fraction = -1.0)",105.864
C:/Users/srbb21/AppData/Local/Temp/rx18_gr30001521653382.841.odb,RELAX,Increment    105: Step Time =    1.000,SHELL-1,830,-3.23206,-8.25,17.7057,ASSEMBLY_SHELL-1_ALLEL,TI,"shell < TI > < 5 section points > : SPOS, (fraction = 1.0)",137.05
C:/Users/srbb21/AppData/Local/Temp/rx18_gr30001521653382.841.odb,RELAX,Increment    105: Step Time =    1.000,SHELL-1,830,-3.23206,-8.25,17.7057,ASSEMBLY_SHELL-1_ALLEL,TI,"shell < TI > < 5 section points > : SNEG, (fraction = -1.0)",109.371
C:/Users/srbb21/AppData/Local/Temp/rx18_gr30001521653382.841.odb,RELAX,Increment    105: Step Time =    1.000,SHELL-1,831,-3.23206,-7.75,17.7057,ASSEMBLY_SHELL-1_ALLEL,TI,"shell < TI > < 5 section points > : SPOS, (fraction = 1.0)",134.334
C:/Users/srbb21/AppData/Local/Temp/rx18_gr30001521653382.841.odb,RELAX,Increment    105: Step Time =    1.000,SHELL-1,831,-3.23206,-7.75,17.7057,ASSEMBLY_SHELL-1_ALLEL,TI,"shell < TI > < 5 section points > : SNEG, (fraction = -1.0)",112.665
C:/Users/srbb21/AppData/Local/Temp/rx18_gr30001521653382.841.odb,RELAX,Increment    105: Step Time =    1.000,SHELL-1,832,-3.23206,-7.25,17.7057,ASSEMBLY_SHELL-1_ALLEL,TI,"shell < TI > < 5 section points > : SPOS, (fraction = 1.0)",131.83
C:/Users/srbb21/AppData/Local/Temp/rx18_gr30001521653382.841.odb,RELAX,Increment    105: Step Time =    1.000,SHELL-1,832,-3.23206,-7.25,17.7057,ASSEMBLY_SHELL-1_ALLEL,TI,"shell < TI > < 5 section points > : SNEG, (fraction = -1.0)",115.717
C:/Users/srbb21/AppData/Local/Temp/rx18_gr30001521653382.841.odb,RELAX,Increment    105: Step Time =    1.000,SHELL-1,833,-3.23206,-6.75,17.7057,ASSEMBLY_SHELL-1_ALLEL,TI,"shell < TI > < 5 section points > : SNEG, (fraction = -1.0)",118.504
C:/Users/srbb21/AppData/Local/Temp/rx18_gr30001521653382.841.odb,RELAX,Increment    105: Step Time =    1.000,SHELL-1,833,-3.23206,-6.75,17.7057,ASSEMBLY_SHELL-1_ALLEL,TI,"shell < TI > < 5 section points > : SPOS, (fraction = 1.0)",129.539
C:/Users/srbb21/AppData/Local/Temp/rx18_gr30001521653382.841.odb,RELAX,Increment    105: Step Time =    1.000,SHELL-1,834,-3.23206,-6.25,17.7057,ASSEMBLY_SHELL-1_ALLEL,TI,"shell < TI > < 5 section points > : SPOS, (fraction = 1.0)",127.456
C:/Users/srbb21/AppData/Local/Temp/rx18_gr30001521653382.841.odb,RELAX,Increment    105: Step Time =    1.000,SHELL-1,834,-3.23206,-6.25,17.7057,ASSEMBLY_SHELL-1_ALLEL,TI,"shell < TI > < 5 section points > : SNEG, (fraction = -1.0)",121.005
C:/Users/srbb21/AppData/Local/Temp/rx18_gr30001521653382.841.odb,RELAX,Increment    105: Step Time =    1.000,SHELL-1,835,-3.23206,-5.75,17.7057,ASSEMBLY_SHELL-1_ALLEL,TI,"shell < TI > < 5 section points > : SPOS, (fraction = 1.0)",125.576
C:/Users/srbb21/AppData/Local/Temp/rx18_gr30001521653382.841.odb,RELAX,Increment    105: Step Time =    1.000,SHELL-1,835,-3.23206,-5.75,17.7057,ASSEMBLY_SHELL-1_ALLEL,TI,"shell < TI > < 5 section points > : SNEG, (fraction = -1.0)",123.208
C:/Users/srbb21/AppData/Local/Temp/rx18_gr30001521653382.841.odb,RELAX,Increment    105: Step Time =    1.000,SHELL-1,836,-3.23206,-5.25,17.7057,ASSEMBLY_SHELL-1_ALLEL,TI,"shell < TI > < 5 section points > : SPOS, (fraction = 1.0)",123.891
C:/Users/srbb21/AppData/Local/Temp/rx18_gr30001521653382.841.odb,RELAX,Increment    105: Step Time =    1.000,SHELL-1,836,-3.23206,-5.25,17.7057,ASSEMBLY_SHELL-1_ALLEL,TI,"shell < TI > < 5 section points > : SNEG, (fraction = -1.0)",125.112
C:/Users/srbb21/AppData/Local/Temp/rx18_gr30001521653382.841.odb,RELAX,Increment    105: Step Time =    1.000,SHELL-1,837,-3.23206,-4.75,17.7057,ASSEMBLY_SHELL-1_ALLEL,TI,"shell < TI > < 5 section points > : SNEG, (fraction = -1.0)",126.721
C:/Users/srbb21/AppData/Local/Temp/rx18_gr30001521653382.841.odb,RELAX,Increment    105: Step Time =    1.000,SHELL-1,837,-3.23206,-4.75,17.7057,ASSEMBLY_SHELL-1_ALLEL,TI,"shell < TI > < 5 section points > : SPOS, (fraction = 1.0)",122.393
C:/Users/srbb21/AppData/Local/Temp/rx18_gr30001521653382.841.odb,RELAX,Increment    105: Step Time =    1.000,SHELL-1,838,-3.23206,-4.25,17.7057,ASSEMBLY_SHELL-1_ALLEL,TI,"shell < TI > < 5 section points > : SPOS, (fraction = 1.0)",121.077
C:/Users/srbb21/AppData/Local/Temp/rx18_gr30001521653382.841.odb,RELAX,Increment    105: Step Time =    1.000,SHELL-1,838,-3.23206,-4.25,17.7057,ASSEMBLY_SHELL-1_ALLEL,TI,"shell < TI > < 5 section points > : SNEG, (fraction = -1.0)",128.053
C:/Users/srbb21/AppData/Local/Temp/rx18_gr30001521653382.841.odb,RELAX,Increment    105: Step Time =    1.000,SHELL-1,839,-3.23206,-3.75,17.7057,ASSEMBLY_SHELL-1_ALLEL,TI,"shell < TI > < 5 section points > : SPOS, (fraction = 1.0)",119.931
C:/Users/srbb21/AppData/Local/Temp/rx18_gr30001521653382.841.odb,RELAX,Increment    105: Step Time =    1.000,SHELL-1,839,-3.23206,-3.75,17.7057,ASSEMBLY_SHELL-1_ALLEL,TI,"shell < TI > < 5 section points > : SNEG, (fraction = -1.0)",129.129
C:/Users/srbb21/AppData/Local/Temp/rx18_gr30001521653382.841.odb,RELAX,Increment    105: Step Time =    1.000,SHELL-1,840,-3.23206,-3.25,17.7057,ASSEMBLY_SHELL-1_ALLEL,TI,"shell < TI > < 5 section points > : SPOS, (fraction = 1.0)",118.952
C:/Users/srbb21/AppData/Local/Temp/rx18_gr30001521653382.841.odb,RELAX,Increment    105: Step Time =    1.000,SHELL-1,840,-3.23206,-3.25,17.7057,ASSEMBLY_SHELL-1_ALLEL,TI,"shell < TI > < 5 section points > : SNEG, (fraction = -1.0)",129.978
C:/Users/srbb21/AppData/Local/Temp/rx18_gr30001521653382.841.odb,RELAX,Increment    105: Step Time =    1.000,SHELL-1,841,-3.23206,-2.75,17.7057,ASSEMBLY_SHELL-1_ALLEL,TI,"shell < TI > < 5 section points > : SNEG, (fraction = -1.0)",130.631
C:/Users/srbb21/AppData/Local/Temp/rx18_gr30001521653382.841.odb,RELAX,Increment    105: Step Time =    1.000,SHELL-1,841,-3.23206,-2.75,17.7057,ASSEMBLY_SHELL-1_ALLEL,TI,"shell < TI > < 5 section points > : SPOS, (fraction = 1.0)",118.131
C:/Users/srbb21/AppData/Local/Temp/rx18_gr30001521653382.841.odb,RELAX,Increment    105: Step Time =    1.000,SHELL-1,842,-3.23206,-2.25,17.7057,ASSEMBLY_SHELL-1_ALLEL,TI,"shell < TI > < 5 section points > : SPOS, (fraction = 1.0)",117.461
C:/Users/srbb21/AppData/Local/Temp/rx18_gr30001521653382.841.odb,RELAX,Increment    105: Step Time =    1.000,SHELL-1,842,-3.23206,-2.25,17.7057,ASSEMBLY_SHELL-1_ALLEL,TI,"shell < TI > < 5 section points > : SNEG, (fraction = -1.0)",131.119
C:/Users/srbb21/AppData/Local/Temp/rx18_gr30001521653382.841.odb,RELAX,Increment    105: Step Time =    1.000,SHELL-1,843,-3.23206,-1.75,17.7057,ASSEMBLY_SHELL-1_ALLEL,TI,"shell < TI > < 5 section points > : SPOS, (fraction = 1.0)",116.935
C:/Users/srbb21/AppData/Local/Temp/rx18_gr30001521653382.841.odb,RELAX,Increment    105: Step Time =    1.000,SHELL-1,843,-3.23206,-1.75,17.7057,ASSEMBLY_SHELL-1_ALLEL,TI,"shell < TI > < 5 section points > : SNEG, (fraction = -1.0)",131.469
C:/Users/srbb21/AppData/Local/Temp/rx18_gr30001521653382.841.odb,RELAX,Increment    105: Step Time =    1.000,SHELL-1,844,-3.23206,-1.25,17.7057,ASSEMBLY_SHELL-1_ALLEL,TI,"shell < TI > < 5 section points > : SPOS, (fraction = 1.0)",116.547
C:/Users/srbb21/AppData/Local/Temp/rx18_gr30001521653382.841.odb,RELAX,Increment    105: Step Time =    1.000,SHELL-1,844,-3.23206,-1.25,17.7057,ASSEMBLY_SHELL-1_ALLEL,TI,"shell < TI > < 5 section points > : SNEG, (fraction = -1.0)",131.709
C:/Users/srbb21/AppData/Local/Temp/rx18_gr30001521653382.841.odb,RELAX,Increment    105: Step Time =    1.000,SHELL-1,845,-3.23206,-0.75,17.7057,ASSEMBLY_SHELL-1_ALLEL,TI,"shell < TI > < 5 section points > : SNEG, (fraction = -1.0)",131.857
C:/Users/srbb21/AppData/Local/Temp/rx18_gr30001521653382.841.odb,RELAX,Increment    105: Step Time =    1.000,SHELL-1,845,-3.23206,-0.75,17.7057,ASSEMBLY_SHELL-1_ALLEL,TI,"shell < TI > < 5 section points > : SPOS, (fraction = 1.0)",116.291
C:/Users/srbb21/AppData/Local/Temp/rx18_gr30001521653382.841.odb,RELAX,Increment    105: Step Time =    1.000,SHELL-1,846,-3.23206,-0.25,17.7057,ASSEMBLY_SHELL-1_ALLEL,TI,"shell < TI > < 5 section points > : SPOS, (fraction = 1.0)",116.165
C:/Users/srbb21/AppData/Local/Temp/rx18_gr30001521653382.841.odb,RELAX,Increment    105: Step Time =    1.000,SHELL-1,846,-3.23206,-0.25,17.7057,ASSEMBLY_SHELL-1_ALLEL,TI,"shell < TI > < 5 section points > : SNEG, (fraction = -1.0)",131.927
C:/Users/srbb21/AppData/Local/Temp/rx18_gr30001521653382.841.odb,RELAX,Increment    105: Step Time =    1.000,SHELL-1,847,-3.23206,0.25,17.7057,ASSEMBLY_SHELL-1_ALLEL,TI,"shell < TI > < 5 section points > : SPOS, (fraction = 1.0)",116.165
C:/Users/srbb21/AppData/Local/Temp/rx18_gr30001521653382.841.odb,RELAX,Increment    105: Step Time =    1.000,SHELL-1,847,-3.23206,0.25,17.7057,ASSEMBLY_SHELL-1_ALLEL,TI,"shell < TI > < 5 section points > : SNEG, (fraction = -1.0)",131.927
C:/Users/srbb21/AppData/Local/Temp/rx18_gr30001521653382.841.odb,RELAX,Increment    105: Step Time =    1.000,SHELL-1,848,-3.23206,0.75,17.7057,ASSEMBLY_SHELL-1_ALLEL,TI,"shell < TI > < 5 section points > : SPOS, (fraction = 1.0)",116.291
C:/Users/srbb21/AppData/Local/Temp/rx18_gr30001521653382.841.odb,RELAX,Increment    105: Step Time =    1.000,SHELL-1,848,-3.23206,0.75,17.7057,ASSEMBLY_SHELL-1_ALLEL,TI,"shell < TI > < 5 section points > : SNEG, (fraction = -1.0)",131.857
C:/Users/srbb21/AppData/Local/Temp/rx18_gr30001521653382.841.odb,RELAX,Increment    105: Step Time =    1.000,SHELL-1,849,-3.23206,1.25,17.7057,ASSEMBLY_SHELL-1_ALLEL,TI,"shell < TI > < 5 section points > : SPOS, (fraction = 1.0)",116.547
C:/Users/srbb21/AppData/Local/Temp/rx18_gr30001521653382.841.odb,RELAX,Increment    105: Step Time =    1.000,SHELL-1,849,-3.23206,1.25,17.7057,ASSEMBLY_SHELL-1_ALLEL,TI,"shell < TI > < 5 section points > : SNEG, (fraction = -1.0)",131.709
C:/Users/srbb21/AppData/Local/Temp/rx18_gr30001521653382.841.odb,RELAX,Increment    105: Step Time =    1.000,SHELL-1,850,-3.23206,1.75,17.7057,ASSEMBLY_SHELL-1_ALLEL,TI,"shell < TI > < 5 section points > : SNEG, (fraction = -1.0)",131.469
C:/Users/srbb21/AppData/Local/Temp/rx18_gr30001521653382.841.odb,RELAX,Increment    105: Step Time =    1.000,SHELL-1,850,-3.23206,1.75,17.7057,ASSEMBLY_SHELL-1_ALLEL,TI,"shell < TI > < 5 section points > : SPOS, (fraction = 1.0)",116.935
C:/Users/srbb21/AppData/Local/Temp/rx18_gr30001521653382.841.odb,RELAX,Increment    105: Step Time =    1.000,SHELL-1,851,-3.23206,2.25,17.7057,ASSEMBLY_SHELL-1_ALLEL,TI,"shell < TI > < 5 section points > : SPOS, (fraction = 1.0)",117.461
C:/Users/srbb21/AppData/Local/Temp/rx18_gr30001521653382.841.odb,RELAX,Increment    105: Step Time =    1.000,SHELL-1,851,-3.23206,2.25,17.7057,ASSEMBLY_SHELL-1_ALLEL,TI,"shell < TI > < 5 section points > : SNEG, (fraction = -1.0)",131.119
C:/Users/srbb21/AppData/Local/Temp/rx18_gr30001521653382.841.odb,RELAX,Increment    105: Step Time =    1.000,SHELL-1,852,-3.23206,2.75,17.7057,ASSEMBLY_SHELL-1_ALLEL,TI,"shell < TI > < 5 section points > : SPOS, (fraction = 1.0)",118.131
C:/Users/srbb21/AppData/Local/Temp/rx18_gr30001521653382.841.odb,RELAX,Increment    105: Step Time =    1.000,SHELL-1,852,-3.23206,2.75,17.7057,ASSEMBLY_SHELL-1_ALLEL,TI,"shell < TI > < 5 section points > : SNEG, (fraction = -1.0)",130.631
C:/Users/srbb21/AppData/Local/Temp/rx18_gr30001521653382.841.odb,RELAX,Increment    105: Step Time =    1.000,SHELL-1,853,-3.23206,3.25,17.7057,ASSEMBLY_SHELL-1_ALLEL,TI,"shell < TI > < 5 section points > : SPOS, (fraction = 1.0)",118.952
C:/Users/srbb21/AppData/Local/Temp/rx18_gr30001521653382.841.odb,RELAX,Increment    105: Step Time =    1.000,SHELL-1,853,-3.23206,3.25,17.7057,ASSEMBLY_SHELL-1_ALLEL,TI,"shell < TI > < 5 section points > : SNEG, (fraction = -1.0)",129.978
C:/Users/srbb21/AppData/Local/Temp/rx18_gr30001521653382.841.odb,RELAX,Increment    105: Step Time =    1.000,SHELL-1,854,-3.23206,3.75,17.7057,ASSEMBLY_SHELL-1_ALLEL,TI,"shell < TI > < 5 section points > : SNEG, (fraction = -1.0)",129.129
C:/Users/srbb21/AppData/Local/Temp/rx18_gr30001521653382.841.odb,RELAX,Increment    105: Step Time =    1.000,SHELL-1,854,-3.23206,3.75,17.7057,ASSEMBLY_SHELL-1_ALLEL,TI,"shell < TI > < 5 section points > : SPOS, (fraction = 1.0)",119.931
C:/Users/srbb21/AppData/Local/Temp/rx18_gr30001521653382.841.odb,RELAX,Increment    105: Step Time =    1.000,SHELL-1,855,-3.23206,4.25,17.7057,ASSEMBLY_SHELL-1_ALLEL,TI,"shell < TI > < 5 section points > : SPOS, (fraction = 1.0)",121.077
C:/Users/srbb21/AppData/Local/Temp/rx18_gr30001521653382.841.odb,RELAX,Increment    105: Step Time =    1.000,SHELL-1,855,-3.23206,4.25,17.7057,ASSEMBLY_SHELL-1_ALLEL,TI,"shell < TI > < 5 section points > : SNEG, (fraction = -1.0)",128.053
C:/Users/srbb21/AppData/Local/Temp/rx18_gr30001521653382.841.odb,RELAX,Increment    105: Step Time =    1.000,SHELL-1,856,-3.23206,4.75,17.7057,ASSEMBLY_SHELL-1_ALLEL,TI,"shell < TI > < 5 section points > : SPOS, (fraction = 1.0)",122.393
C:/Users/srbb21/AppData/Local/Temp/rx18_gr30001521653382.841.odb,RELAX,Increment    105: Step Time =    1.000,SHELL-1,856,-3.23206,4.75,17.7057,ASSEMBLY_SHELL-1_ALLEL,TI,"shell < TI > < 5 section points > : SNEG, (fraction = -1.0)",126.721
C:/Users/srbb21/AppData/Local/Temp/rx18_gr30001521653382.841.odb,RELAX,Increment    105: Step Time =    1.000,SHELL-1,857,-3.23206,5.25,17.7057,ASSEMBLY_SHELL-1_ALLEL,TI,"shell < TI > < 5 section points > : SPOS, (fraction = 1.0)",123.891
C:/Users/srbb21/AppData/Local/Temp/rx18_gr30001521653382.841.odb,RELAX,Increment    105: Step Time =    1.000,SHELL-1,857,-3.23206,5.25,17.7057,ASSEMBLY_SHELL-1_ALLEL,TI,"shell < TI > < 5 section points > : SNEG, (fraction = -1.0)",125.112
C:/Users/srbb21/AppData/Local/Temp/rx18_gr30001521653382.841.odb,RELAX,Increment    105: Step Time =    1.000,SHELL-1,858,-3.23206,5.75,17.7057,ASSEMBLY_SHELL-1_ALLEL,TI,"shell < TI > < 5 section points > : SNEG, (fraction = -1.0)",123.208
C:/Users/srbb21/AppData/Local/Temp/rx18_gr30001521653382.841.odb,RELAX,Increment    105: Step Time =    1.000,SHELL-1,858,-3.23206,5.75,17.7057,ASSEMBLY_SHELL-1_ALLEL,TI,"shell < TI > < 5 section points > : SPOS, (fraction = 1.0)",125.576
C:/Users/srbb21/AppData/Local/Temp/rx18_gr30001521653382.841.odb,RELAX,Increment    105: Step Time =    1.000,SHELL-1,859,-3.23206,6.25,17.7057,ASSEMBLY_SHELL-1_ALLEL,TI,"shell < TI > < 5 section points > : SPOS, (fraction = 1.0)",127.456
C:/Users/srbb21/AppData/Local/Temp/rx18_gr30001521653382.841.odb,RELAX,Increment    105: Step Time =    1.000,SHELL-1,859,-3.23206,6.25,17.7057,ASSEMBLY_SHELL-1_ALLEL,TI,"shell < TI > < 5 section points > : SNEG, (fraction = -1.0)",121.005
C:/Users/srbb21/AppData/Local/Temp/rx18_gr30001521653382.841.odb,RELAX,Increment    105: Step Time =    1.000,SHELL-1,860,-3.23206,6.75,17.7057,ASSEMBLY_SHELL-1_ALLEL,TI,"shell < TI > < 5 section points > : SPOS, (fraction = 1.0)",129.539
C:/Users/srbb21/AppData/Local/Temp/rx18_gr30001521653382.841.odb,RELAX,Increment    105: Step Time =    1.000,SHELL-1,860,-3.23206,6.75,17.7057,ASSEMBLY_SHELL-1_ALLEL,TI,"shell < TI > < 5 section points > : SNEG, (fraction = -1.0)",118.504
C:/Users/srbb21/AppData/Local/Temp/rx18_gr30001521653382.841.odb,RELAX,Increment    105: Step Time =    1.000,SHELL-1,861,-3.23206,7.25,17.7057,ASSEMBLY_SHELL-1_ALLEL,TI,"shell < TI > < 5 section points > : SPOS, (fraction = 1.0)",131.83
C:/Users/srbb21/AppData/Local/Temp/rx18_gr30001521653382.841.odb,RELAX,Increment    105: Step Time =    1.000,SHELL-1,861,-3.23206,7.25,17.7057,ASSEMBLY_SHELL-1_ALLEL,TI,"shell < TI > < 5 section points > : SNEG, (fraction = -1.0)",115.717
C:/Users/srbb21/AppData/Local/Temp/rx18_gr30001521653382.841.odb,RELAX,Increment    105: Step Time =    1.000,SHELL-1,862,-3.23206,7.75,17.7057,ASSEMBLY_SHELL-1_ALLEL,TI,"shell < TI > < 5 section points > : SNEG, (fraction = -1.0)",112.665
C:/Users/srbb21/AppData/Local/Temp/rx18_gr30001521653382.841.odb,RELAX,Increment    105: Step Time =    1.000,SHELL-1,862,-3.23206,7.75,17.7057,ASSEMBLY_SHELL-1_ALLEL,TI,"shell < TI > < 5 section points > : SPOS, (fraction = 1.0)",134.334
C:/Users/srbb21/AppData/Local/Temp/rx18_gr30001521653382.841.odb,RELAX,Increment    105: Step Time =    1.000,SHELL-1,863,-3.23206,8.25,17.7057,ASSEMBLY_SHELL-1_ALLEL,TI,"shell < TI > < 5 section points > : SPOS, (fraction = 1.0)",137.05
C:/Users/srbb21/AppData/Local/Temp/rx18_gr30001521653382.841.odb,RELAX,Increment    105: Step Time =    1.000,SHELL-1,863,-3.23206,8.25,17.7057,ASSEMBLY_SHELL-1_ALLEL,TI,"shell < TI > < 5 section points > : SNEG, (fraction = -1.0)",109.371
C:/Users/srbb21/AppData/Local/Temp/rx18_gr30001521653382.841.odb,RELAX,Increment    105: Step Time =    1.000,SHELL-1,864,-3.23206,8.75,17.7057,ASSEMBLY_SHELL-1_ALLEL,TI,"shell < TI > < 5 section points > : SPOS, (fraction = 1.0)",139.982
C:/Users/srbb21/AppData/Local/Temp/rx18_gr30001521653382.841.odb,RELAX,Increment    105: Step Time =    1.000,SHELL-1,864,-3.23206,8.75,17.7057,ASSEMBLY_SHELL-1_ALLEL,TI,"shell < TI > < 5 section points > : SNEG, (fraction = -1.0)",105.864
C:/Users/srbb21/AppData/Local/Temp/rx18_gr30001521653382.841.odb,RELAX,Increment    105: Step Time =    1.000,SHELL-1,865,-2.73905,-8.75,17.7886,ASSEMBLY_SHELL-1_ALLEL,TI,"shell < TI > < 5 section points > : SPOS, (fraction = 1.0)",139.969
C:/Users/srbb21/AppData/Local/Temp/rx18_gr30001521653382.841.odb,RELAX,Increment    105: Step Time =    1.000,SHELL-1,865,-2.73905,-8.75,17.7886,ASSEMBLY_SHELL-1_ALLEL,TI,"shell < TI > < 5 section points > : SNEG, (fraction = -1.0)",106.179
C:/Users/srbb21/AppData/Local/Temp/rx18_gr30001521653382.841.odb,RELAX,Increment    105: Step Time =    1.000,SHELL-1,866,-2.73905,-8.25,17.7886,ASSEMBLY_SHELL-1_ALLEL,TI,"shell < TI > < 5 section points > : SPOS, (fraction = 1.0)",137.096
C:/Users/srbb21/AppData/Local/Temp/rx18_gr30001521653382.841.odb,RELAX,Increment    105: Step Time =    1.000,SHELL-1,866,-2.73905,-8.25,17.7886,ASSEMBLY_SHELL-1_ALLEL,TI,"shell < TI > < 5 section points > : SNEG, (fraction = -1.0)",109.591
C:/Users/srbb21/AppData/Local/Temp/rx18_gr30001521653382.841.odb,RELAX,Increment    105: Step Time =    1.000,SHELL-1,867,-2.73905,-7.75,17.7886,ASSEMBLY_SHELL-1_ALLEL,TI,"shell < TI > < 5 section points > : SNEG, (fraction = -1.0)",112.797
C:/Users/srbb21/AppData/Local/Temp/rx18_gr30001521653382.841.odb,RELAX,Increment    105: Step Time =    1.000,SHELL-1,867,-2.73905,-7.75,17.7886,ASSEMBLY_SHELL-1_ALLEL,TI,"shell < TI > < 5 section points > : SPOS, (fraction = 1.0)",134.433
C:/Users/srbb21/AppData/Local/Temp/rx18_gr30001521653382.841.odb,RELAX,Increment    105: Step Time =    1.000,SHELL-1,868,-2.73905,-7.25,17.7886,ASSEMBLY_SHELL-1_ALLEL,TI,"shell < TI > < 5 section points > : SPOS, (fraction = 1.0)",131.974
C:/Users/srbb21/AppData/Local/Temp/rx18_gr30001521653382.841.odb,RELAX,Increment    105: Step Time =    1.000,SHELL-1,868,-2.73905,-7.25,17.7886,ASSEMBLY_SHELL-1_ALLEL,TI,"shell < TI > < 5 section points > : SNEG, (fraction = -1.0)",115.769
C:/Users/srbb21/AppData/Local/Temp/rx18_gr30001521653382.841.odb,RELAX,Increment    105: Step Time =    1.000,SHELL-1,869,-2.73905,-6.75,17.7886,ASSEMBLY_SHELL-1_ALLEL,TI,"shell < TI > < 5 section points > : SPOS, (fraction = 1.0)",129.719
C:/Users/srbb21/AppData/Local/Temp/rx18_gr30001521653382.841.odb,RELAX,Increment    105: Step Time =    1.000,SHELL-1,869,-2.73905,-6.75,17.7886,ASSEMBLY_SHELL-1_ALLEL,TI,"shell < TI > < 5 section points > : SNEG, (fraction = -1.0)",118.49
C:/Users/srbb21/AppData/Local/Temp/rx18_gr30001521653382.841.odb,RELAX,Increment    105: Step Time =    1.000,SHELL-1,870,-2.73905,-6.25,17.7886,ASSEMBLY_SHELL-1_ALLEL,TI,"shell < TI > < 5 section points > : SPOS, (fraction = 1.0)",127.66
C:/Users/srbb21/AppData/Local/Temp/rx18_gr30001521653382.841.odb,RELAX,Increment    105: Step Time =    1.000,SHELL-1,870,-2.73905,-6.25,17.7886,ASSEMBLY_SHELL-1_ALLEL,TI,"shell < TI > < 5 section points > : SNEG, (fraction = -1.0)",120.94
C:/Users/srbb21/AppData/Local/Temp/rx18_gr30001521653382.841.odb,RELAX,Increment    105: Step Time =    1.000,SHELL-1,871,-2.73905,-5.75,17.7886,ASSEMBLY_SHELL-1_ALLEL,TI,"shell < TI > < 5 section points > : SNEG, (fraction = -1.0)",123.113
C:/Users/srbb21/AppData/Local/Temp/rx18_gr30001521653382.841.odb,RELAX,Increment    105: Step Time =    1.000,SHELL-1,871,-2.73905,-5.75,17.7886,ASSEMBLY_SHELL-1_ALLEL,TI,"shell < TI > < 5 section points > : SPOS, (fraction = 1.0)",125.791
C:/Users/srbb21/AppData/Local/Temp/rx18_gr30001521653382.841.odb,RELAX,Increment    105: Step Time =    1.000,SHELL-1,872,-2.73905,-5.25,17.7886,ASSEMBLY_SHELL-1_ALLEL,TI,"shell < TI > < 5 section points > : SPOS, (fraction = 1.0)",124.103
C:/Users/srbb21/AppData/Local/Temp/rx18_gr30001521653382.841.odb,RELAX,Increment    105: Step Time =    1.000,SHELL-1,872,-2.73905,-5.25,17.7886,ASSEMBLY_SHELL-1_ALLEL,TI,"shell < TI > < 5 section points > : SNEG, (fraction = -1.0)",125.002
C:/Users/srbb21/AppData/Local/Temp/rx18_gr30001521653382.841.odb,RELAX,Increment    105: Step Time =    1.000,SHELL-1,873,-2.73905,-4.75,17.7886,ASSEMBLY_SHELL-1_ALLEL,TI,"shell < TI > < 5 section points > : SPOS, (fraction = 1.0)",122.591
C:/Users/srbb21/AppData/Local/Temp/rx18_gr30001521653382.841.odb,RELAX,Increment    105: Step Time =    1.000,SHELL-1,873,-2.73905,-4.75,17.7886,ASSEMBLY_SHELL-1_ALLEL,TI,"shell < TI > < 5 section points > : SNEG, (fraction = -1.0)",126.616
C:/Users/srbb21/AppData/Local/Temp/rx18_gr30001521653382.841.odb,RELAX,Increment    105: Step Time =    1.000,SHELL-1,874,-2.73905,-4.25,17.7886,ASSEMBLY_SHELL-1_ALLEL,TI,"shell < TI > < 5 section points > : SPOS, (fraction = 1.0)",121.245
C:/Users/srbb21/AppData/Local/Temp/rx18_gr30001521653382.841.odb,RELAX,Increment    105: Step Time =    1.000,SHELL-1,874,-2.73905,-4.25,17.7886,ASSEMBLY_SHELL-1_ALLEL,TI,"shell < TI > < 5 section points > : SNEG, (fraction = -1.0)",127.965
C:/Users/srbb21/AppData/Local/Temp/rx18_gr30001521653382.841.odb,RELAX,Increment    105: Step Time =    1.000,SHELL-1,875,-2.73905,-3.75,17.7886,ASSEMBLY_SHELL-1_ALLEL,TI,"shell < TI > < 5 section points > : SNEG, (fraction = -1.0)",129.071
C:/Users/srbb21/AppData/Local/Temp/rx18_gr30001521653382.841.odb,RELAX,Increment    105: Step Time =    1.000,SHELL-1,875,-2.73905,-3.75,17.7886,ASSEMBLY_SHELL-1_ALLEL,TI,"shell < TI > < 5 section points > : SPOS, (fraction = 1.0)",120.063
C:/Users/srbb21/AppData/Local/Temp/rx18_gr30001521653382.841.odb,RELAX,Increment    105: Step Time =    1.000,SHELL-1,876,-2.73905,-3.25,17.7886,ASSEMBLY_SHELL-1_ALLEL,TI,"shell < TI > < 5 section points > : SPOS, (fraction = 1.0)",119.038
C:/Users/srbb21/AppData/Local/Temp/rx18_gr30001521653382.841.odb,RELAX,Increment    105: Step Time =    1.000,SHELL-1,876,-2.73905,-3.25,17.7886,ASSEMBLY_SHELL-1_ALLEL,TI,"shell < TI > < 5 section points > : SNEG, (fraction = -1.0)",129.956
C:/Users/srbb21/AppData/Local/Temp/rx18_gr30001521653382.841.odb,RELAX,Increment    105: Step Time =    1.000,SHELL-1,877,-2.73905,-2.75,17.7886,ASSEMBLY_SHELL-1_ALLEL,TI,"shell < TI > < 5 section points > : SPOS, (fraction = 1.0)",118.169
C:/Users/srbb21/AppData/Local/Temp/rx18_gr30001521653382.841.odb,RELAX,Increment    105: Step Time =    1.000,SHELL-1,877,-2.73905,-2.75,17.7886,ASSEMBLY_SHELL-1_ALLEL,TI,"shell < TI > < 5 section points > : SNEG, (fraction = -1.0)",130.649
C:/Users/srbb21/AppData/Local/Temp/rx18_gr30001521653382.841.odb,RELAX,Increment    105: Step Time =    1.000,SHELL-1,878,-2.73905,-2.25,17.7886,ASSEMBLY_SHELL-1_ALLEL,TI,"shell < TI > < 5 section points > : SPOS, (fraction = 1.0)",117.449
C:/Users/srbb21/AppData/Local/Temp/rx18_gr30001521653382.841.odb,RELAX,Increment    105: Step Time =    1.000,SHELL-1,878,-2.73905,-2.25,17.7886,ASSEMBLY_SHELL-1_ALLEL,TI,"shell < TI > < 5 section points > : SNEG, (fraction = -1.0)",131.175
C:/Users/srbb21/AppData/Local/Temp/rx18_gr30001521653382.841.odb,RELAX,Increment    105: Step Time =    1.000,SHELL-1,879,-2.73905,-1.75,17.7886,ASSEMBLY_SHELL-1_ALLEL,TI,"shell < TI > < 5 section points > : SNEG, (fraction = -1.0)",131.562
C:/Users/srbb21/AppData/Local/Temp/rx18_gr30001521653382.841.odb,RELAX,Increment    105: Step Time =    1.000,SHELL-1,879,-2.73905,-1.75,17.7886,ASSEMBLY_SHELL-1_ALLEL,TI,"shell < TI > < 5 section points > : SPOS, (fraction = 1.0)",116.88
C:/Users/srbb21/AppData/Local/Temp/rx18_gr30001521653382.841.odb,RELAX,Increment    105: Step Time =    1.000,SHELL-1,880,-2.73905,-1.25,17.7886,ASSEMBLY_SHELL-1_ALLEL,TI,"shell < TI > < 5 section points > : SPOS, (fraction = 1.0)",116.455
C:/Users/srbb21/AppData/Local/Temp/rx18_gr30001521653382.841.odb,RELAX,Increment    105: Step Time =    1.000,SHELL-1,880,-2.73905,-1.25,17.7886,ASSEMBLY_SHELL-1_ALLEL,TI,"shell < TI > < 5 section points > : SNEG, (fraction = -1.0)",131.829
C:/Users/srbb21/AppData/Local/Temp/rx18_gr30001521653382.841.odb,RELAX,Increment    105: Step Time =    1.000,SHELL-1,881,-2.73905,-0.75,17.7886,ASSEMBLY_SHELL-1_ALLEL,TI,"shell < TI > < 5 section points > : SPOS, (fraction = 1.0)",116.174
C:/Users/srbb21/AppData/Local/Temp/rx18_gr30001521653382.841.odb,RELAX,Increment    105: Step Time =    1.000,SHELL-1,881,-2.73905,-0.75,17.7886,ASSEMBLY_SHELL-1_ALLEL,TI,"shell < TI > < 5 section points > : SNEG, (fraction = -1.0)",131.999
C:/Users/srbb21/AppData/Local/Temp/rx18_gr30001521653382.841.odb,RELAX,Increment    105: Step Time =    1.000,SHELL-1,882,-2.73905,-0.25,17.7886,ASSEMBLY_SHELL-1_ALLEL,TI,"shell < TI > < 5 section points > : SPOS, (fraction = 1.0)",116.033
C:/Users/srbb21/AppData/Local/Temp/rx18_gr30001521653382.841.odb,RELAX,Increment    105: Step Time =    1.000,SHELL-1,882,-2.73905,-0.25,17.7886,ASSEMBLY_SHELL-1_ALLEL,TI,"shell < TI > < 5 section points > : SNEG, (fraction = -1.0)",132.079
C:/Users/srbb21/AppData/Local/Temp/rx18_gr30001521653382.841.odb,RELAX,Increment    105: Step Time =    1.000,SHELL-1,883,-2.73905,0.25,17.7886,ASSEMBLY_SHELL-1_ALLEL,TI,"shell < TI > < 5 section points > : SPOS, (fraction = 1.0)",116.033
C:/Users/srbb21/AppData/Local/Temp/rx18_gr30001521653382.841.odb,RELAX,Increment    105: Step Time =    1.000,SHELL-1,883,-2.73905,0.25,17.7886,ASSEMBLY_SHELL-1_ALLEL,TI,"shell < TI > < 5 section points > : SNEG, (fraction = -1.0)",132.079
C:/Users/srbb21/AppData/Local/Temp/rx18_gr30001521653382.841.odb,RELAX,Increment    105: Step Time =    1.000,SHELL-1,884,-2.73905,0.75,17.7886,ASSEMBLY_SHELL-1_ALLEL,TI,"shell < TI > < 5 section points > : SNEG, (fraction = -1.0)",131.999
C:/Users/srbb21/AppData/Local/Temp/rx18_gr30001521653382.841.odb,RELAX,Increment    105: Step Time =    1.000,SHELL-1,884,-2.73905,0.75,17.7886,ASSEMBLY_SHELL-1_ALLEL,TI,"shell < TI > < 5 section points > : SPOS, (fraction = 1.0)",116.174
C:/Users/srbb21/AppData/Local/Temp/rx18_gr30001521653382.841.odb,RELAX,Increment    105: Step Time =    1.000,SHELL-1,885,-2.73905,1.25,17.7886,ASSEMBLY_SHELL-1_ALLEL,TI,"shell < TI > < 5 section points > : SPOS, (fraction = 1.0)",116.455
C:/Users/srbb21/AppData/Local/Temp/rx18_gr30001521653382.841.odb,RELAX,Increment    105: Step Time =    1.000,SHELL-1,885,-2.73905,1.25,17.7886,ASSEMBLY_SHELL-1_ALLEL,TI,"shell < TI > < 5 section points > : SNEG, (fraction = -1.0)",131.829
C:/Users/srbb21/AppData/Local/Temp/rx18_gr30001521653382.841.odb,RELAX,Increment    105: Step Time =    1.000,SHELL-1,886,-2.73905,1.75,17.7886,ASSEMBLY_SHELL-1_ALLEL,TI,"shell < TI > < 5 section points > : SPOS, (fraction = 1.0)",116.88
C:/Users/srbb21/AppData/Local/Temp/rx18_gr30001521653382.841.odb,RELAX,Increment    105: Step Time =    1.000,SHELL-1,886,-2.73905,1.75,17.7886,ASSEMBLY_SHELL-1_ALLEL,TI,"shell < TI > < 5 section points > : SNEG, (fraction = -1.0)",131.562
C:/Users/srbb21/AppData/Local/Temp/rx18_gr30001521653382.841.odb,RELAX,Increment    105: Step Time =    1.000,SHELL-1,887,-2.73905,2.25,17.7886,ASSEMBLY_SHELL-1_ALLEL,TI,"shell < TI > < 5 section points > : SPOS, (fraction = 1.0)",117.449
C:/Users/srbb21/AppData/Local/Temp/rx18_gr30001521653382.841.odb,RELAX,Increment    105: Step Time =    1.000,SHELL-1,887,-2.73905,2.25,17.7886,ASSEMBLY_SHELL-1_ALLEL,TI,"shell < TI > < 5 section points > : SNEG, (fraction = -1.0)",131.175
C:/Users/srbb21/AppData/Local/Temp/rx18_gr30001521653382.841.odb,RELAX,Increment    105: Step Time =    1.000,SHELL-1,888,-2.73905,2.75,17.7886,ASSEMBLY_SHELL-1_ALLEL,TI,"shell < TI > < 5 section points > : SNEG, (fraction = -1.0)",130.649
C:/Users/srbb21/AppData/Local/Temp/rx18_gr30001521653382.841.odb,RELAX,Increment    105: Step Time =    1.000,SHELL-1,888,-2.73905,2.75,17.7886,ASSEMBLY_SHELL-1_ALLEL,TI,"shell < TI > < 5 section points > : SPOS, (fraction = 1.0)",118.169
C:/Users/srbb21/AppData/Local/Temp/rx18_gr30001521653382.841.odb,RELAX,Increment    105: Step Time =    1.000,SHELL-1,889,-2.73905,3.25,17.7886,ASSEMBLY_SHELL-1_ALLEL,TI,"shell < TI > < 5 section points > : SPOS, (fraction = 1.0)",119.038
C:/Users/srbb21/AppData/Local/Temp/rx18_gr30001521653382.841.odb,RELAX,Increment    105: Step Time =    1.000,SHELL-1,889,-2.73905,3.25,17.7886,ASSEMBLY_SHELL-1_ALLEL,TI,"shell < TI > < 5 section points > : SNEG, (fraction = -1.0)",129.956
C:/Users/srbb21/AppData/Local/Temp/rx18_gr30001521653382.841.odb,RELAX,Increment    105: Step Time =    1.000,SHELL-1,890,-2.73905,3.75,17.7886,ASSEMBLY_SHELL-1_ALLEL,TI,"shell < TI > < 5 section points > : SPOS, (fraction = 1.0)",120.063
C:/Users/srbb21/AppData/Local/Temp/rx18_gr30001521653382.841.odb,RELAX,Increment    105: Step Time =    1.000,SHELL-1,890,-2.73905,3.75,17.7886,ASSEMBLY_SHELL-1_ALLEL,TI,"shell < TI > < 5 section points > : SNEG, (fraction = -1.0)",129.071
C:/Users/srbb21/AppData/Local/Temp/rx18_gr30001521653382.841.odb,RELAX,Increment    105: Step Time =    1.000,SHELL-1,891,-2.73905,4.25,17.7886,ASSEMBLY_SHELL-1_ALLEL,TI,"shell < TI > < 5 section points > : SPOS, (fraction = 1.0)",121.245
C:/Users/srbb21/AppData/Local/Temp/rx18_gr30001521653382.841.odb,RELAX,Increment    105: Step Time =    1.000,SHELL-1,891,-2.73905,4.25,17.7886,ASSEMBLY_SHELL-1_ALLEL,TI,"shell < TI > < 5 section points > : SNEG, (fraction = -1.0)",127.965
C:/Users/srbb21/AppData/Local/Temp/rx18_gr30001521653382.841.odb,RELAX,Increment    105: Step Time =    1.000,SHELL-1,892,-2.73905,4.75,17.7886,ASSEMBLY_SHELL-1_ALLEL,TI,"shell < TI > < 5 section points > : SNEG, (fraction = -1.0)",126.616
C:/Users/srbb21/AppData/Local/Temp/rx18_gr30001521653382.841.odb,RELAX,Increment    105: Step Time =    1.000,SHELL-1,892,-2.73905,4.75,17.7886,ASSEMBLY_SHELL-1_ALLEL,TI,"shell < TI > < 5 section points > : SPOS, (fraction = 1.0)",122.591
C:/Users/srbb21/AppData/Local/Temp/rx18_gr30001521653382.841.odb,RELAX,Increment    105: Step Time =    1.000,SHELL-1,893,-2.73905,5.25,17.7886,ASSEMBLY_SHELL-1_ALLEL,TI,"shell < TI > < 5 section points > : SPOS, (fraction = 1.0)",124.103
C:/Users/srbb21/AppData/Local/Temp/rx18_gr30001521653382.841.odb,RELAX,Increment    105: Step Time =    1.000,SHELL-1,893,-2.73905,5.25,17.7886,ASSEMBLY_SHELL-1_ALLEL,TI,"shell < TI > < 5 section points > : SNEG, (fraction = -1.0)",125.002
C:/Users/srbb21/AppData/Local/Temp/rx18_gr30001521653382.841.odb,RELAX,Increment    105: Step Time =    1.000,SHELL-1,894,-2.73905,5.75,17.7886,ASSEMBLY_SHELL-1_ALLEL,TI,"shell < TI > < 5 section points > : SPOS, (fraction = 1.0)",125.791
C:/Users/srbb21/AppData/Local/Temp/rx18_gr30001521653382.841.odb,RELAX,Increment    105: Step Time =    1.000,SHELL-1,894,-2.73905,5.75,17.7886,ASSEMBLY_SHELL-1_ALLEL,TI,"shell < TI > < 5 section points > : SNEG, (fraction = -1.0)",123.113
C:/Users/srbb21/AppData/Local/Temp/rx18_gr30001521653382.841.odb,RELAX,Increment    105: Step Time =    1.000,SHELL-1,895,-2.73905,6.25,17.7886,ASSEMBLY_SHELL-1_ALLEL,TI,"shell < TI > < 5 section points > : SPOS, (fraction = 1.0)",127.66
C:/Users/srbb21/AppData/Local/Temp/rx18_gr30001521653382.841.odb,RELAX,Increment    105: Step Time =    1.000,SHELL-1,895,-2.73905,6.25,17.7886,ASSEMBLY_SHELL-1_ALLEL,TI,"shell < TI > < 5 section points > : SNEG, (fraction = -1.0)",120.94
C:/Users/srbb21/AppData/Local/Temp/rx18_gr30001521653382.841.odb,RELAX,Increment    105: Step Time =    1.000,SHELL-1,896,-2.73905,6.75,17.7886,ASSEMBLY_SHELL-1_ALLEL,TI,"shell < TI > < 5 section points > : SNEG, (fraction = -1.0)",118.49
C:/Users/srbb21/AppData/Local/Temp/rx18_gr30001521653382.841.odb,RELAX,Increment    105: Step Time =    1.000,SHELL-1,896,-2.73905,6.75,17.7886,ASSEMBLY_SHELL-1_ALLEL,TI,"shell < TI > < 5 section points > : SPOS, (fraction = 1.0)",129.719
C:/Users/srbb21/AppData/Local/Temp/rx18_gr30001521653382.841.odb,RELAX,Increment    105: Step Time =    1.000,SHELL-1,897,-2.73905,7.25,17.7886,ASSEMBLY_SHELL-1_ALLEL,TI,"shell < TI > < 5 section points > : SPOS, (fraction = 1.0)",131.974
C:/Users/srbb21/AppData/Local/Temp/rx18_gr30001521653382.841.odb,RELAX,Increment    105: Step Time =    1.000,SHELL-1,897,-2.73905,7.25,17.7886,ASSEMBLY_SHELL-1_ALLEL,TI,"shell < TI > < 5 section points > : SNEG, (fraction = -1.0)",115.769
C:/Users/srbb21/AppData/Local/Temp/rx18_gr30001521653382.841.odb,RELAX,Increment    105: Step Time =    1.000,SHELL-1,898,-2.73905,7.75,17.7886,ASSEMBLY_SHELL-1_ALLEL,TI,"shell < TI > < 5 section points > : SPOS, (fraction = 1.0)",134.433
C:/Users/srbb21/AppData/Local/Temp/rx18_gr30001521653382.841.odb,RELAX,Increment    105: Step Time =    1.000,SHELL-1,898,-2.73905,7.75,17.7886,ASSEMBLY_SHELL-1_ALLEL,TI,"shell < TI > < 5 section points > : SNEG, (fraction = -1.0)",112.797
C:/Users/srbb21/AppData/Local/Temp/rx18_gr30001521653382.841.odb,RELAX,Increment    105: Step Time =    1.000,SHELL-1,899,-2.73905,8.25,17.7886,ASSEMBLY_SHELL-1_ALLEL,TI,"shell < TI > < 5 section points > : SPOS, (fraction = 1.0)",137.096
C:/Users/srbb21/AppData/Local/Temp/rx18_gr30001521653382.841.odb,RELAX,Increment    105: Step Time =    1.000,SHELL-1,899,-2.73905,8.25,17.7886,ASSEMBLY_SHELL-1_ALLEL,TI,"shell < TI > < 5 section points > : SNEG, (fraction = -1.0)",109.591
C:/Users/srbb21/AppData/Local/Temp/rx18_gr30001521653382.841.odb,RELAX,Increment    105: Step Time =    1.000,SHELL-1,900,-2.73905,8.75,17.7886,ASSEMBLY_SHELL-1_ALLEL,TI,"shell < TI > < 5 section points > : SPOS, (fraction = 1.0)",139.969
C:/Users/srbb21/AppData/Local/Temp/rx18_gr30001521653382.841.odb,RELAX,Increment    105: Step Time =    1.000,SHELL-1,900,-2.73905,8.75,17.7886,ASSEMBLY_SHELL-1_ALLEL,TI,"shell < TI > < 5 section points > : SNEG, (fraction = -1.0)",106.179
C:/Users/srbb21/AppData/Local/Temp/rx18_gr30001521653382.841.odb,RELAX,Increment    105: Step Time =    1.000,SHELL-1,901,-2.24393,-8.75,17.8578,ASSEMBLY_SHELL-1_ALLEL,TI,"shell < TI > < 5 section points > : SNEG, (fraction = -1.0)",106.436
C:/Users/srbb21/AppData/Local/Temp/rx18_gr30001521653382.841.odb,RELAX,Increment    105: Step Time =    1.000,SHELL-1,901,-2.24393,-8.75,17.8578,ASSEMBLY_SHELL-1_ALLEL,TI,"shell < TI > < 5 section points > : SPOS, (fraction = 1.0)",139.966
C:/Users/srbb21/AppData/Local/Temp/rx18_gr30001521653382.841.odb,RELAX,Increment    105: Step Time =    1.000,SHELL-1,902,-2.24393,-8.25,17.8578,ASSEMBLY_SHELL-1_ALLEL,TI,"shell < TI > < 5 section points > : SPOS, (fraction = 1.0)",137.141
C:/Users/srbb21/AppData/Local/Temp/rx18_gr30001521653382.841.odb,RELAX,Increment    105: Step Time =    1.000,SHELL-1,902,-2.24393,-8.25,17.8578,ASSEMBLY_SHELL-1_ALLEL,TI,"shell < TI > < 5 section points > : SNEG, (fraction = -1.0)",109.773
C:/Users/srbb21/AppData/Local/Temp/rx18_gr30001521653382.841.odb,RELAX,Increment    105: Step Time =    1.000,SHELL-1,903,-2.24393,-7.75,17.8578,ASSEMBLY_SHELL-1_ALLEL,TI,"shell < TI > < 5 section points > : SPOS, (fraction = 1.0)",134.519
C:/Users/srbb21/AppData/Local/Temp/rx18_gr30001521653382.841.odb,RELAX,Increment    105: Step Time =    1.000,SHELL-1,903,-2.24393,-7.75,17.8578,ASSEMBLY_SHELL-1_ALLEL,TI,"shell < TI > < 5 section points > : SNEG, (fraction = -1.0)",112.907
C:/Users/srbb21/AppData/Local/Temp/rx18_gr30001521653382.841.odb,RELAX,Increment    105: Step Time =    1.000,SHELL-1,904,-2.24393,-7.25,17.8578,ASSEMBLY_SHELL-1_ALLEL,TI,"shell < TI > < 5 section points > : SPOS, (fraction = 1.0)",132.095
C:/Users/srbb21/AppData/Local/Temp/rx18_gr30001521653382.841.odb,RELAX,Increment    105: Step Time =    1.000,SHELL-1,904,-2.24393,-7.25,17.8578,ASSEMBLY_SHELL-1_ALLEL,TI,"shell < TI > < 5 section points > : SNEG, (fraction = -1.0)",115.817
C:/Users/srbb21/AppData/Local/Temp/rx18_gr30001521653382.841.odb,RELAX,Increment    105: Step Time =    1.000,SHELL-1,905,-2.24393,-6.75,17.8578,ASSEMBLY_SHELL-1_ALLEL,TI,"shell < TI > < 5 section points > : SNEG, (fraction = -1.0)",118.484
C:/Users/srbb21/AppData/Local/Temp/rx18_gr30001521653382.841.odb,RELAX,Increment    105: Step Time =    1.000,SHELL-1,905,-2.24393,-6.75,17.8578,ASSEMBLY_SHELL-1_ALLEL,TI,"shell < TI > < 5 section points > : SPOS, (fraction = 1.0)",129.866
C:/Users/srbb21/AppData/Local/Temp/rx18_gr30001521653382.841.odb,RELAX,Increment    105: Step Time =    1.000,SHELL-1,906,-2.24393,-6.25,17.8578,ASSEMBLY_SHELL-1_ALLEL,TI,"shell < TI > < 5 section points > : SPOS, (fraction = 1.0)",127.825
C:/Users/srbb21/AppData/Local/Temp/rx18_gr30001521653382.841.odb,RELAX,Increment    105: Step Time =    1.000,SHELL-1,906,-2.24393,-6.25,17.8578,ASSEMBLY_SHELL-1_ALLEL,TI,"shell < TI > < 5 section points > : SNEG, (fraction = -1.0)",120.896
C:/Users/srbb21/AppData/Local/Temp/rx18_gr30001521653382.841.odb,RELAX,Increment    105: Step Time =    1.000,SHELL-1,907,-2.24393,-5.75,17.8578,ASSEMBLY_SHELL-1_ALLEL,TI,"shell < TI > < 5 section points > : SPOS, (fraction = 1.0)",125.963
C:/Users/srbb21/AppData/Local/Temp/rx18_gr30001521653382.841.odb,RELAX,Increment    105: Step Time =    1.000,SHELL-1,907,-2.24393,-5.75,17.8578,ASSEMBLY_SHELL-1_ALLEL,TI,"shell < TI > < 5 section points > : SNEG, (fraction = -1.0)",123.043
C:/Users/srbb21/AppData/Local/Temp/rx18_gr30001521653382.841.odb,RELAX,Increment    105: Step Time =    1.000,SHELL-1,908,-2.24393,-5.25,17.8578,ASSEMBLY_SHELL-1_ALLEL,TI,"shell < TI > < 5 section points > : SPOS, (fraction = 1.0)",124.274
C:/Users/srbb21/AppData/Local/Temp/rx18_gr30001521653382.841.odb,RELAX,Increment    105: Step Time =    1.000,SHELL-1,908,-2.24393,-5.25,17.8578,ASSEMBLY_SHELL-1_ALLEL,TI,"shell < TI > < 5 section points > : SNEG, (fraction = -1.0)",124.923
C:/Users/srbb21/AppData/Local/Temp/rx18_gr30001521653382.841.odb,RELAX,Increment    105: Step Time =    1.000,SHELL-1,909,-2.24393,-4.75,17.8578,ASSEMBLY_SHELL-1_ALLEL,TI,"shell < TI > < 5 section points > : SNEG, (fraction = -1.0)",126.539
C:/Users/srbb21/AppData/Local/Temp/rx18_gr30001521653382.841.odb,RELAX,Increment    105: Step Time =    1.000,SHELL-1,909,-2.24393,-4.75,17.8578,ASSEMBLY_SHELL-1_ALLEL,TI,"shell < TI > < 5 section points > : SPOS, (fraction = 1.0)",122.748
C:/Users/srbb21/AppData/Local/Temp/rx18_gr30001521653382.841.odb,RELAX,Increment    105: Step Time =    1.000,SHELL-1,910,-2.24393,-4.25,17.8578,ASSEMBLY_SHELL-1_ALLEL,TI,"shell < TI > < 5 section points > : SPOS, (fraction = 1.0)",121.382
C:/Users/srbb21/AppData/Local/Temp/rx18_gr30001521653382.841.odb,RELAX,Increment    105: Step Time =    1.000,SHELL-1,910,-2.24393,-4.25,17.8578,ASSEMBLY_SHELL-1_ALLEL,TI,"shell < TI > < 5 section points > : SNEG, (fraction = -1.0)",127.904
C:/Users/srbb21/AppData/Local/Temp/rx18_gr30001521653382.841.odb,RELAX,Increment    105: Step Time =    1.000,SHELL-1,911,-2.24393,-3.75,17.8578,ASSEMBLY_SHELL-1_ALLEL,TI,"shell < TI > < 5 section points > : SPOS, (fraction = 1.0)",120.169
C:/Users/srbb21/AppData/Local/Temp/rx18_gr30001521653382.841.odb,RELAX,Increment    105: Step Time =    1.000,SHELL-1,911,-2.24393,-3.75,17.8578,ASSEMBLY_SHELL-1_ALLEL,TI,"shell < TI > < 5 section points > : SNEG, (fraction = -1.0)",129.033
C:/Users/srbb21/AppData/Local/Temp/rx18_gr30001521653382.841.odb,RELAX,Increment    105: Step Time =    1.000,SHELL-1,912,-2.24393,-3.25,17.8578,ASSEMBLY_SHELL-1_ALLEL,TI,"shell < TI > < 5 section points > : SPOS, (fraction = 1.0)",119.111
C:/Users/srbb21/AppData/Local/Temp/rx18_gr30001521653382.841.odb,RELAX,Increment    105: Step Time =    1.000,SHELL-1,912,-2.24393,-3.25,17.8578,ASSEMBLY_SHELL-1_ALLEL,TI,"shell < TI > < 5 section points > : SNEG, (fraction = -1.0)",129.95
C:/Users/srbb21/AppData/Local/Temp/rx18_gr30001521653382.841.odb,RELAX,Increment    105: Step Time =    1.000,SHELL-1,913,-2.24393,-2.75,17.8578,ASSEMBLY_SHELL-1_ALLEL,TI,"shell < TI > < 5 section points > : SNEG, (fraction = -1.0)",130.675
C:/Users/srbb21/AppData/Local/Temp/rx18_gr30001521653382.841.odb,RELAX,Increment    105: Step Time =    1.000,SHELL-1,913,-2.24393,-2.75,17.8578,ASSEMBLY_SHELL-1_ALLEL,TI,"shell < TI > < 5 section points > : SPOS, (fraction = 1.0)",118.203
C:/Users/srbb21/AppData/Local/Temp/rx18_gr30001521653382.841.odb,RELAX,Increment    105: Step Time =    1.000,SHELL-1,914,-2.24393,-2.25,17.8578,ASSEMBLY_SHELL-1_ALLEL,TI,"shell < TI > < 5 section points > : SPOS, (fraction = 1.0)",117.447
C:/Users/srbb21/AppData/Local/Temp/rx18_gr30001521653382.841.odb,RELAX,Increment    105: Step Time =    1.000,SHELL-1,914,-2.24393,-2.25,17.8578,ASSEMBLY_SHELL-1_ALLEL,TI,"shell < TI > < 5 section points > : SNEG, (fraction = -1.0)",131.235
C:/Users/srbb21/AppData/Local/Temp/rx18_gr30001521653382.841.odb,RELAX,Increment    105: Step Time =    1.000,SHELL-1,915,-2.24393,-1.75,17.8578,ASSEMBLY_SHELL-1_ALLEL,TI,"shell < TI > < 5 section points > : SPOS, (fraction = 1.0)",116.841
C:/Users/srbb21/AppData/Local/Temp/rx18_gr30001521653382.841.odb,RELAX,Increment    105: Step Time =    1.000,SHELL-1,915,-2.24393,-1.75,17.8578,ASSEMBLY_SHELL-1_ALLEL,TI,"shell < TI > < 5 section points > : SNEG, (fraction = -1.0)",131.65
C:/Users/srbb21/AppData/Local/Temp/rx18_gr30001521653382.841.odb,RELAX,Increment    105: Step Time =    1.000,SHELL-1,916,-2.24393,-1.25,17.8578,ASSEMBLY_SHELL-1_ALLEL,TI,"shell < TI > < 5 section points > : SPOS, (fraction = 1.0)",116.389
C:/Users/srbb21/AppData/Local/Temp/rx18_gr30001521653382.841.odb,RELAX,Increment    105: Step Time =    1.000,SHELL-1,916,-2.24393,-1.25,17.8578,ASSEMBLY_SHELL-1_ALLEL,TI,"shell < TI > < 5 section points > : SNEG, (fraction = -1.0)",131.944
C:/Users/srbb21/AppData/Local/Temp/rx18_gr30001521653382.841.odb,RELAX,Increment    105: Step Time =    1.000,SHELL-1,917,-2.24393,-0.75,17.8578,ASSEMBLY_SHELL-1_ALLEL,TI,"shell < TI > < 5 section points > : SPOS, (fraction = 1.0)",116.086
C:/Users/srbb21/AppData/Local/Temp/rx18_gr30001521653382.841.odb,RELAX,Increment    105: Step Time =    1.000,SHELL-1,917,-2.24393,-0.75,17.8578,ASSEMBLY_SHELL-1_ALLEL,TI,"shell < TI > < 5 section points > : SNEG, (fraction = -1.0)",132.129
C:/Users/srbb21/AppData/Local/Temp/rx18_gr30001521653382.841.odb,RELAX,Increment    105: Step Time =    1.000,SHELL-1,918,-2.24393,-0.25,17.8578,ASSEMBLY_SHELL-1_ALLEL,TI,"shell < TI > < 5 section points > : SNEG, (fraction = -1.0)",132.22
C:/Users/srbb21/AppData/Local/Temp/rx18_gr30001521653382.841.odb,RELAX,Increment    105: Step Time =    1.000,SHELL-1,918,-2.24393,-0.25,17.8578,ASSEMBLY_SHELL-1_ALLEL,TI,"shell < TI > < 5 section points > : SPOS, (fraction = 1.0)",115.935
C:/Users/srbb21/AppData/Local/Temp/rx18_gr30001521653382.841.odb,RELAX,Increment    105: Step Time =    1.000,SHELL-1,919,-2.24393,0.25,17.8578,ASSEMBLY_SHELL-1_ALLEL,TI,"shell < TI > < 5 section points > : SPOS, (fraction = 1.0)",115.935
C:/Users/srbb21/AppData/Local/Temp/rx18_gr30001521653382.841.odb,RELAX,Increment    105: Step Time =    1.000,SHELL-1,919,-2.24393,0.25,17.8578,ASSEMBLY_SHELL-1_ALLEL,TI,"shell < TI > < 5 section points > : SNEG, (fraction = -1.0)",132.22
C:/Users/srbb21/AppData/Local/Temp/rx18_gr30001521653382.841.odb,RELAX,Increment    105: Step Time =    1.000,SHELL-1,920,-2.24393,0.75,17.8578,ASSEMBLY_SHELL-1_ALLEL,TI,"shell < TI > < 5 section points > : SPOS, (fraction = 1.0)",116.086
C:/Users/srbb21/AppData/Local/Temp/rx18_gr30001521653382.841.odb,RELAX,Increment    105: Step Time =    1.000,SHELL-1,920,-2.24393,0.75,17.8578,ASSEMBLY_SHELL-1_ALLEL,TI,"shell < TI > < 5 section points > : SNEG, (fraction = -1.0)",132.129
C:/Users/srbb21/AppData/Local/Temp/rx18_gr30001521653382.841.odb,RELAX,Increment    105: Step Time =    1.000,SHELL-1,921,-2.24393,1.25,17.8578,ASSEMBLY_SHELL-1_ALLEL,TI,"shell < TI > < 5 section points > : SPOS, (fraction = 1.0)",116.389
C:/Users/srbb21/AppData/Local/Temp/rx18_gr30001521653382.841.odb,RELAX,Increment    105: Step Time =    1.000,SHELL-1,921,-2.24393,1.25,17.8578,ASSEMBLY_SHELL-1_ALLEL,TI,"shell < TI > < 5 section points > : SNEG, (fraction = -1.0)",131.944
C:/Users/srbb21/AppData/Local/Temp/rx18_gr30001521653382.841.odb,RELAX,Increment    105: Step Time =    1.000,SHELL-1,922,-2.24393,1.75,17.8578,ASSEMBLY_SHELL-1_ALLEL,TI,"shell < TI > < 5 section points > : SNEG, (fraction = -1.0)",131.65
C:/Users/srbb21/AppData/Local/Temp/rx18_gr30001521653382.841.odb,RELAX,Increment    105: Step Time =    1.000,SHELL-1,922,-2.24393,1.75,17.8578,ASSEMBLY_SHELL-1_ALLEL,TI,"shell < TI > < 5 section points > : SPOS, (fraction = 1.0)",116.841
C:/Users/srbb21/AppData/Local/Temp/rx18_gr30001521653382.841.odb,RELAX,Increment    105: Step Time =    1.000,SHELL-1,923,-2.24393,2.25,17.8578,ASSEMBLY_SHELL-1_ALLEL,TI,"shell < TI > < 5 section points > : SPOS, (fraction = 1.0)",117.447
C:/Users/srbb21/AppData/Local/Temp/rx18_gr30001521653382.841.odb,RELAX,Increment    105: Step Time =    1.000,SHELL-1,923,-2.24393,2.25,17.8578,ASSEMBLY_SHELL-1_ALLEL,TI,"shell < TI > < 5 section points > : SNEG, (fraction = -1.0)",131.235
C:/Users/srbb21/AppData/Local/Temp/rx18_gr30001521653382.841.odb,RELAX,Increment    105: Step Time =    1.000,SHELL-1,924,-2.24393,2.75,17.8578,ASSEMBLY_SHELL-1_ALLEL,TI,"shell < TI > < 5 section points > : SPOS, (fraction = 1.0)",118.203
C:/Users/srbb21/AppData/Local/Temp/rx18_gr30001521653382.841.odb,RELAX,Increment    105: Step Time =    1.000,SHELL-1,924,-2.24393,2.75,17.8578,ASSEMBLY_SHELL-1_ALLEL,TI,"shell < TI > < 5 section points > : SNEG, (fraction = -1.0)",130.675
C:/Users/srbb21/AppData/Local/Temp/rx18_gr30001521653382.841.odb,RELAX,Increment    105: Step Time =    1.000,SHELL-1,925,-2.24393,3.25,17.8578,ASSEMBLY_SHELL-1_ALLEL,TI,"shell < TI > < 5 section points > : SPOS, (fraction = 1.0)",119.111
C:/Users/srbb21/AppData/Local/Temp/rx18_gr30001521653382.841.odb,RELAX,Increment    105: Step Time =    1.000,SHELL-1,925,-2.24393,3.25,17.8578,ASSEMBLY_SHELL-1_ALLEL,TI,"shell < TI > < 5 section points > : SNEG, (fraction = -1.0)",129.95
C:/Users/srbb21/AppData/Local/Temp/rx18_gr30001521653382.841.odb,RELAX,Increment    105: Step Time =    1.000,SHELL-1,926,-2.24393,3.75,17.8578,ASSEMBLY_SHELL-1_ALLEL,TI,"shell < TI > < 5 section points > : SNEG, (fraction = -1.0)",129.033
C:/Users/srbb21/AppData/Local/Temp/rx18_gr30001521653382.841.odb,RELAX,Increment    105: Step Time =    1.000,SHELL-1,926,-2.24393,3.75,17.8578,ASSEMBLY_SHELL-1_ALLEL,TI,"shell < TI > < 5 section points > : SPOS, (fraction = 1.0)",120.169
C:/Users/srbb21/AppData/Local/Temp/rx18_gr30001521653382.841.odb,RELAX,Increment    105: Step Time =    1.000,SHELL-1,927,-2.24393,4.25,17.8578,ASSEMBLY_SHELL-1_ALLEL,TI,"shell < TI > < 5 section points > : SPOS, (fraction = 1.0)",121.382
C:/Users/srbb21/AppData/Local/Temp/rx18_gr30001521653382.841.odb,RELAX,Increment    105: Step Time =    1.000,SHELL-1,927,-2.24393,4.25,17.8578,ASSEMBLY_SHELL-1_ALLEL,TI,"shell < TI > < 5 section points > : SNEG, (fraction = -1.0)",127.904
C:/Users/srbb21/AppData/Local/Temp/rx18_gr30001521653382.841.odb,RELAX,Increment    105: Step Time =    1.000,SHELL-1,928,-2.24393,4.75,17.8578,ASSEMBLY_SHELL-1_ALLEL,TI,"shell < TI > < 5 section points > : SPOS, (fraction = 1.0)",122.748
C:/Users/srbb21/AppData/Local/Temp/rx18_gr30001521653382.841.odb,RELAX,Increment    105: Step Time =    1.000,SHELL-1,928,-2.24393,4.75,17.8578,ASSEMBLY_SHELL-1_ALLEL,TI,"shell < TI > < 5 section points > : SNEG, (fraction = -1.0)",126.539
C:/Users/srbb21/AppData/Local/Temp/rx18_gr30001521653382.841.odb,RELAX,Increment    105: Step Time =    1.000,SHELL-1,929,-2.24393,5.25,17.8578,ASSEMBLY_SHELL-1_ALLEL,TI,"shell < TI > < 5 section points > : SPOS, (fraction = 1.0)",124.274
C:/Users/srbb21/AppData/Local/Temp/rx18_gr30001521653382.841.odb,RELAX,Increment    105: Step Time =    1.000,SHELL-1,929,-2.24393,5.25,17.8578,ASSEMBLY_SHELL-1_ALLEL,TI,"shell < TI > < 5 section points > : SNEG, (fraction = -1.0)",124.923
C:/Users/srbb21/AppData/Local/Temp/rx18_gr30001521653382.841.odb,RELAX,Increment    105: Step Time =    1.000,SHELL-1,930,-2.24393,5.75,17.8578,ASSEMBLY_SHELL-1_ALLEL,TI,"shell < TI > < 5 section points > : SNEG, (fraction = -1.0)",123.043
C:/Users/srbb21/AppData/Local/Temp/rx18_gr30001521653382.841.odb,RELAX,Increment    105: Step Time =    1.000,SHELL-1,930,-2.24393,5.75,17.8578,ASSEMBLY_SHELL-1_ALLEL,TI,"shell < TI > < 5 section points > : SPOS, (fraction = 1.0)",125.963
C:/Users/srbb21/AppData/Local/Temp/rx18_gr30001521653382.841.odb,RELAX,Increment    105: Step Time =    1.000,SHELL-1,931,-2.24393,6.25,17.8578,ASSEMBLY_SHELL-1_ALLEL,TI,"shell < TI > < 5 section points > : SPOS, (fraction = 1.0)",127.825
C:/Users/srbb21/AppData/Local/Temp/rx18_gr30001521653382.841.odb,RELAX,Increment    105: Step Time =    1.000,SHELL-1,931,-2.24393,6.25,17.8578,ASSEMBLY_SHELL-1_ALLEL,TI,"shell < TI > < 5 section points > : SNEG, (fraction = -1.0)",120.896
C:/Users/srbb21/AppData/Local/Temp/rx18_gr30001521653382.841.odb,RELAX,Increment    105: Step Time =    1.000,SHELL-1,932,-2.24393,6.75,17.8578,ASSEMBLY_SHELL-1_ALLEL,TI,"shell < TI > < 5 section points > : SPOS, (fraction = 1.0)",129.866
C:/Users/srbb21/AppData/Local/Temp/rx18_gr30001521653382.841.odb,RELAX,Increment    105: Step Time =    1.000,SHELL-1,932,-2.24393,6.75,17.8578,ASSEMBLY_SHELL-1_ALLEL,TI,"shell < TI > < 5 section points > : SNEG, (fraction = -1.0)",118.484
C:/Users/srbb21/AppData/Local/Temp/rx18_gr30001521653382.841.odb,RELAX,Increment    105: Step Time =    1.000,SHELL-1,933,-2.24393,7.25,17.8578,ASSEMBLY_SHELL-1_ALLEL,TI,"shell < TI > < 5 section points > : SPOS, (fraction = 1.0)",132.095
C:/Users/srbb21/AppData/Local/Temp/rx18_gr30001521653382.841.odb,RELAX,Increment    105: Step Time =    1.000,SHELL-1,933,-2.24393,7.25,17.8578,ASSEMBLY_SHELL-1_ALLEL,TI,"shell < TI > < 5 section points > : SNEG, (fraction = -1.0)",115.817
C:/Users/srbb21/AppData/Local/Temp/rx18_gr30001521653382.841.odb,RELAX,Increment    105: Step Time =    1.000,SHELL-1,934,-2.24393,7.75,17.8578,ASSEMBLY_SHELL-1_ALLEL,TI,"shell < TI > < 5 section points > : SNEG, (fraction = -1.0)",112.907
C:/Users/srbb21/AppData/Local/Temp/rx18_gr30001521653382.841.odb,RELAX,Increment    105: Step Time =    1.000,SHELL-1,934,-2.24393,7.75,17.8578,ASSEMBLY_SHELL-1_ALLEL,TI,"shell < TI > < 5 section points > : SPOS, (fraction = 1.0)",134.519
C:/Users/srbb21/AppData/Local/Temp/rx18_gr30001521653382.841.odb,RELAX,Increment    105: Step Time =    1.000,SHELL-1,935,-2.24393,8.25,17.8578,ASSEMBLY_SHELL-1_ALLEL,TI,"shell < TI > < 5 section points > : SPOS, (fraction = 1.0)",137.141
C:/Users/srbb21/AppData/Local/Temp/rx18_gr30001521653382.841.odb,RELAX,Increment    105: Step Time =    1.000,SHELL-1,935,-2.24393,8.25,17.8578,ASSEMBLY_SHELL-1_ALLEL,TI,"shell < TI > < 5 section points > : SNEG, (fraction = -1.0)",109.773
C:/Users/srbb21/AppData/Local/Temp/rx18_gr30001521653382.841.odb,RELAX,Increment    105: Step Time =    1.000,SHELL-1,936,-2.24393,8.75,17.8578,ASSEMBLY_SHELL-1_ALLEL,TI,"shell < TI > < 5 section points > : SPOS, (fraction = 1.0)",139.966
C:/Users/srbb21/AppData/Local/Temp/rx18_gr30001521653382.841.odb,RELAX,Increment    105: Step Time =    1.000,SHELL-1,936,-2.24393,8.75,17.8578,ASSEMBLY_SHELL-1_ALLEL,TI,"shell < TI > < 5 section points > : SNEG, (fraction = -1.0)",106.436
C:/Users/srbb21/AppData/Local/Temp/rx18_gr30001521653382.841.odb,RELAX,Increment    105: Step Time =    1.000,SHELL-1,937,-1.74708,-8.75,17.9133,ASSEMBLY_SHELL-1_ALLEL,TI,"shell < TI > < 5 section points > : SPOS, (fraction = 1.0)",139.967
C:/Users/srbb21/AppData/Local/Temp/rx18_gr30001521653382.841.odb,RELAX,Increment    105: Step Time =    1.000,SHELL-1,937,-1.74708,-8.75,17.9133,ASSEMBLY_SHELL-1_ALLEL,TI,"shell < TI > < 5 section points > : SNEG, (fraction = -1.0)",106.639
C:/Users/srbb21/AppData/Local/Temp/rx18_gr30001521653382.841.odb,RELAX,Increment    105: Step Time =    1.000,SHELL-1,938,-1.74708,-8.25,17.9133,ASSEMBLY_SHELL-1_ALLEL,TI,"shell < TI > < 5 section points > : SNEG, (fraction = -1.0)",109.915
C:/Users/srbb21/AppData/Local/Temp/rx18_gr30001521653382.841.odb,RELAX,Increment    105: Step Time =    1.000,SHELL-1,938,-1.74708,-8.25,17.9133,ASSEMBLY_SHELL-1_ALLEL,TI,"shell < TI > < 5 section points > : SPOS, (fraction = 1.0)",137.179
C:/Users/srbb21/AppData/Local/Temp/rx18_gr30001521653382.841.odb,RELAX,Increment    105: Step Time =    1.000,SHELL-1,939,-1.74708,-7.75,17.9133,ASSEMBLY_SHELL-1_ALLEL,TI,"shell < TI > < 5 section points > : SPOS, (fraction = 1.0)",134.589
C:/Users/srbb21/AppData/Local/Temp/rx18_gr30001521653382.841.odb,RELAX,Increment    105: Step Time =    1.000,SHELL-1,939,-1.74708,-7.75,17.9133,ASSEMBLY_SHELL-1_ALLEL,TI,"shell < TI > < 5 section points > : SNEG, (fraction = -1.0)",112.996
C:/Users/srbb21/AppData/Local/Temp/rx18_gr30001521653382.841.odb,RELAX,Increment    105: Step Time =    1.000,SHELL-1,940,-1.74708,-7.25,17.9133,ASSEMBLY_SHELL-1_ALLEL,TI,"shell < TI > < 5 section points > : SPOS, (fraction = 1.0)",132.19
C:/Users/srbb21/AppData/Local/Temp/rx18_gr30001521653382.841.odb,RELAX,Increment    105: Step Time =    1.000,SHELL-1,940,-1.74708,-7.25,17.9133,ASSEMBLY_SHELL-1_ALLEL,TI,"shell < TI > < 5 section points > : SNEG, (fraction = -1.0)",115.856
C:/Users/srbb21/AppData/Local/Temp/rx18_gr30001521653382.841.odb,RELAX,Increment    105: Step Time =    1.000,SHELL-1,941,-1.74708,-6.75,17.9133,ASSEMBLY_SHELL-1_ALLEL,TI,"shell < TI > < 5 section points > : SPOS, (fraction = 1.0)",129.981
C:/Users/srbb21/AppData/Local/Temp/rx18_gr30001521653382.841.odb,RELAX,Increment    105: Step Time =    1.000,SHELL-1,941,-1.74708,-6.75,17.9133,ASSEMBLY_SHELL-1_ALLEL,TI,"shell < TI > < 5 section points > : SNEG, (fraction = -1.0)",118.484
C:/Users/srbb21/AppData/Local/Temp/rx18_gr30001521653382.841.odb,RELAX,Increment    105: Step Time =    1.000,SHELL-1,942,-1.74708,-6.25,17.9133,ASSEMBLY_SHELL-1_ALLEL,TI,"shell < TI > < 5 section points > : SNEG, (fraction = -1.0)",120.865
C:/Users/srbb21/AppData/Local/Temp/rx18_gr30001521653382.841.odb,RELAX,Increment    105: Step Time =    1.000,SHELL-1,942,-1.74708,-6.25,17.9133,ASSEMBLY_SHELL-1_ALLEL,TI,"shell < TI > < 5 section points > : SPOS, (fraction = 1.0)",127.952
C:/Users/srbb21/AppData/Local/Temp/rx18_gr30001521653382.841.odb,RELAX,Increment    105: Step Time =    1.000,SHELL-1,943,-1.74708,-5.75,17.9133,ASSEMBLY_SHELL-1_ALLEL,TI,"shell < TI > < 5 section points > : SPOS, (fraction = 1.0)",126.096
C:/Users/srbb21/AppData/Local/Temp/rx18_gr30001521653382.841.odb,RELAX,Increment    105: Step Time =    1.000,SHELL-1,943,-1.74708,-5.75,17.9133,ASSEMBLY_SHELL-1_ALLEL,TI,"shell < TI > < 5 section points > : SNEG, (fraction = -1.0)",122.994
C:/Users/srbb21/AppData/Local/Temp/rx18_gr30001521653382.841.odb,RELAX,Increment    105: Step Time =    1.000,SHELL-1,944,-1.74708,-5.25,17.9133,ASSEMBLY_SHELL-1_ALLEL,TI,"shell < TI > < 5 section points > : SPOS, (fraction = 1.0)",124.404
C:/Users/srbb21/AppData/Local/Temp/rx18_gr30001521653382.841.odb,RELAX,Increment    105: Step Time =    1.000,SHELL-1,944,-1.74708,-5.25,17.9133,ASSEMBLY_SHELL-1_ALLEL,TI,"shell < TI > < 5 section points > : SNEG, (fraction = -1.0)",124.865
C:/Users/srbb21/AppData/Local/Temp/rx18_gr30001521653382.841.odb,RELAX,Increment    105: Step Time =    1.000,SHELL-1,945,-1.74708,-4.75,17.9133,ASSEMBLY_SHELL-1_ALLEL,TI,"shell < TI > < 5 section points > : SPOS, (fraction = 1.0)",122.869
C:/Users/srbb21/AppData/Local/Temp/rx18_gr30001521653382.841.odb,RELAX,Increment    105: Step Time =    1.000,SHELL-1,945,-1.74708,-4.75,17.9133,ASSEMBLY_SHELL-1_ALLEL,TI,"shell < TI > < 5 section points > : SNEG, (fraction = -1.0)",126.485
C:/Users/srbb21/AppData/Local/Temp/rx18_gr30001521653382.841.odb,RELAX,Increment    105: Step Time =    1.000,SHELL-1,946,-1.74708,-4.25,17.9133,ASSEMBLY_SHELL-1_ALLEL,TI,"shell < TI > < 5 section points > : SNEG, (fraction = -1.0)",127.861
C:/Users/srbb21/AppData/Local/Temp/rx18_gr30001521653382.841.odb,RELAX,Increment    105: Step Time =    1.000,SHELL-1,946,-1.74708,-4.25,17.9133,ASSEMBLY_SHELL-1_ALLEL,TI,"shell < TI > < 5 section points > : SPOS, (fraction = 1.0)",121.486
C:/Users/srbb21/AppData/Local/Temp/rx18_gr30001521653382.841.odb,RELAX,Increment    105: Step Time =    1.000,SHELL-1,947,-1.74708,-3.75,17.9133,ASSEMBLY_SHELL-1_ALLEL,TI,"shell < TI > < 5 section points > : SPOS, (fraction = 1.0)",120.252
C:/Users/srbb21/AppData/Local/Temp/rx18_gr30001521653382.841.odb,RELAX,Increment    105: Step Time =    1.000,SHELL-1,947,-1.74708,-3.75,17.9133,ASSEMBLY_SHELL-1_ALLEL,TI,"shell < TI > < 5 section points > : SNEG, (fraction = -1.0)",129.01
C:/Users/srbb21/AppData/Local/Temp/rx18_gr30001521653382.841.odb,RELAX,Increment    105: Step Time =    1.000,SHELL-1,948,-1.74708,-3.25,17.9133,ASSEMBLY_SHELL-1_ALLEL,TI,"shell < TI > < 5 section points > : SPOS, (fraction = 1.0)",119.167
C:/Users/srbb21/AppData/Local/Temp/rx18_gr30001521653382.841.odb,RELAX,Increment    105: Step Time =    1.000,SHELL-1,948,-1.74708,-3.25,17.9133,ASSEMBLY_SHELL-1_ALLEL,TI,"shell < TI > < 5 section points > : SNEG, (fraction = -1.0)",129.95
C:/Users/srbb21/AppData/Local/Temp/rx18_gr30001521653382.841.odb,RELAX,Increment    105: Step Time =    1.000,SHELL-1,949,-1.74708,-2.75,17.9133,ASSEMBLY_SHELL-1_ALLEL,TI,"shell < TI > < 5 section points > : SPOS, (fraction = 1.0)",118.231
C:/Users/srbb21/AppData/Local/Temp/rx18_gr30001521653382.841.odb,RELAX,Increment    105: Step Time =    1.000,SHELL-1,949,-1.74708,-2.75,17.9133,ASSEMBLY_SHELL-1_ALLEL,TI,"shell < TI > < 5 section points > : SNEG, (fraction = -1.0)",130.702
C:/Users/srbb21/AppData/Local/Temp/rx18_gr30001521653382.841.odb,RELAX,Increment    105: Step Time =    1.000,SHELL-1,950,-1.74708,-2.25,17.9133,ASSEMBLY_SHELL-1_ALLEL,TI,"shell < TI > < 5 section points > : SPOS, (fraction = 1.0)",117.446
C:/Users/srbb21/AppData/Local/Temp/rx18_gr30001521653382.841.odb,RELAX,Increment    105: Step Time =    1.000,SHELL-1,950,-1.74708,-2.25,17.9133,ASSEMBLY_SHELL-1_ALLEL,TI,"shell < TI > < 5 section points > : SNEG, (fraction = -1.0)",131.288
C:/Users/srbb21/AppData/Local/Temp/rx18_gr30001521653382.841.odb,RELAX,Increment    105: Step Time =    1.000,SHELL-1,951,-1.74708,-1.75,17.9133,ASSEMBLY_SHELL-1_ALLEL,TI,"shell < TI > < 5 section points > : SNEG, (fraction = -1.0)",131.729
C:/Users/srbb21/AppData/Local/Temp/rx18_gr30001521653382.841.odb,RELAX,Increment    105: Step Time =    1.000,SHELL-1,951,-1.74708,-1.75,17.9133,ASSEMBLY_SHELL-1_ALLEL,TI,"shell < TI > < 5 section points > : SPOS, (fraction = 1.0)",116.816
C:/Users/srbb21/AppData/Local/Temp/rx18_gr30001521653382.841.odb,RELAX,Increment    105: Step Time =    1.000,SHELL-1,952,-1.74708,-1.25,17.9133,ASSEMBLY_SHELL-1_ALLEL,TI,"shell < TI > < 5 section points > : SPOS, (fraction = 1.0)",116.339
C:/Users/srbb21/AppData/Local/Temp/rx18_gr30001521653382.841.odb,RELAX,Increment    105: Step Time =    1.000,SHELL-1,952,-1.74708,-1.25,17.9133,ASSEMBLY_SHELL-1_ALLEL,TI,"shell < TI > < 5 section points > : SNEG, (fraction = -1.0)",132.04
C:/Users/srbb21/AppData/Local/Temp/rx18_gr30001521653382.841.odb,RELAX,Increment    105: Step Time =    1.000,SHELL-1,953,-1.74708,-0.75,17.9133,ASSEMBLY_SHELL-1_ALLEL,TI,"shell < TI > < 5 section points > : SPOS, (fraction = 1.0)",116.023
C:/Users/srbb21/AppData/Local/Temp/rx18_gr30001521653382.841.odb,RELAX,Increment    105: Step Time =    1.000,SHELL-1,953,-1.74708,-0.75,17.9133,ASSEMBLY_SHELL-1_ALLEL,TI,"shell < TI > < 5 section points > : SNEG, (fraction = -1.0)",132.242
C:/Users/srbb21/AppData/Local/Temp/rx18_gr30001521653382.841.odb,RELAX,Increment    105: Step Time =    1.000,SHELL-1,954,-1.74708,-0.25,17.9133,ASSEMBLY_SHELL-1_ALLEL,TI,"shell < TI > < 5 section points > : SPOS, (fraction = 1.0)",115.862
C:/Users/srbb21/AppData/Local/Temp/rx18_gr30001521653382.841.odb,RELAX,Increment    105: Step Time =    1.000,SHELL-1,954,-1.74708,-0.25,17.9133,ASSEMBLY_SHELL-1_ALLEL,TI,"shell < TI > < 5 section points > : SNEG, (fraction = -1.0)",132.338
C:/Users/srbb21/AppData/Local/Temp/rx18_gr30001521653382.841.odb,RELAX,Increment    105: Step Time =    1.000,SHELL-1,955,-1.74708,0.25,17.9133,ASSEMBLY_SHELL-1_ALLEL,TI,"shell < TI > < 5 section points > : SNEG, (fraction = -1.0)",132.338
C:/Users/srbb21/AppData/Local/Temp/rx18_gr30001521653382.841.odb,RELAX,Increment    105: Step Time =    1.000,SHELL-1,955,-1.74708,0.25,17.9133,ASSEMBLY_SHELL-1_ALLEL,TI,"shell < TI > < 5 section points > : SPOS, (fraction = 1.0)",115.862
C:/Users/srbb21/AppData/Local/Temp/rx18_gr30001521653382.841.odb,RELAX,Increment    105: Step Time =    1.000,SHELL-1,956,-1.74708,0.75,17.9133,ASSEMBLY_SHELL-1_ALLEL,TI,"shell < TI > < 5 section points > : SPOS, (fraction = 1.0)",116.023
C:/Users/srbb21/AppData/Local/Temp/rx18_gr30001521653382.841.odb,RELAX,Increment    105: Step Time =    1.000,SHELL-1,956,-1.74708,0.75,17.9133,ASSEMBLY_SHELL-1_ALLEL,TI,"shell < TI > < 5 section points > : SNEG, (fraction = -1.0)",132.242
C:/Users/srbb21/AppData/Local/Temp/rx18_gr30001521653382.841.odb,RELAX,Increment    105: Step Time =    1.000,SHELL-1,957,-1.74708,1.25,17.9133,ASSEMBLY_SHELL-1_ALLEL,TI,"shell < TI > < 5 section points > : SPOS, (fraction = 1.0)",116.339
C:/Users/srbb21/AppData/Local/Temp/rx18_gr30001521653382.841.odb,RELAX,Increment    105: Step Time =    1.000,SHELL-1,957,-1.74708,1.25,17.9133,ASSEMBLY_SHELL-1_ALLEL,TI,"shell < TI > < 5 section points > : SNEG, (fraction = -1.0)",132.04
C:/Users/srbb21/AppData/Local/Temp/rx18_gr30001521653382.841.odb,RELAX,Increment    105: Step Time =    1.000,SHELL-1,958,-1.74708,1.75,17.9133,ASSEMBLY_SHELL-1_ALLEL,TI,"shell < TI > < 5 section points > : SPOS, (fraction = 1.0)",116.816
C:/Users/srbb21/AppData/Local/Temp/rx18_gr30001521653382.841.odb,RELAX,Increment    105: Step Time =    1.000,SHELL-1,958,-1.74708,1.75,17.9133,ASSEMBLY_SHELL-1_ALLEL,TI,"shell < TI > < 5 section points > : SNEG, (fraction = -1.0)",131.729
C:/Users/srbb21/AppData/Local/Temp/rx18_gr30001521653382.841.odb,RELAX,Increment    105: Step Time =    1.000,SHELL-1,959,-1.74708,2.25,17.9133,ASSEMBLY_SHELL-1_ALLEL,TI,"shell < TI > < 5 section points > : SNEG, (fraction = -1.0)",131.288
C:/Users/srbb21/AppData/Local/Temp/rx18_gr30001521653382.841.odb,RELAX,Increment    105: Step Time =    1.000,SHELL-1,959,-1.74708,2.25,17.9133,ASSEMBLY_SHELL-1_ALLEL,TI,"shell < TI > < 5 section points > : SPOS, (fraction = 1.0)",117.446
C:/Users/srbb21/AppData/Local/Temp/rx18_gr30001521653382.841.odb,RELAX,Increment    105: Step Time =    1.000,SHELL-1,960,-1.74708,2.75,17.9133,ASSEMBLY_SHELL-1_ALLEL,TI,"shell < TI > < 5 section points > : SPOS, (fraction = 1.0)",118.231
C:/Users/srbb21/AppData/Local/Temp/rx18_gr30001521653382.841.odb,RELAX,Increment    105: Step Time =    1.000,SHELL-1,960,-1.74708,2.75,17.9133,ASSEMBLY_SHELL-1_ALLEL,TI,"shell < TI > < 5 section points > : SNEG, (fraction = -1.0)",130.702
C:/Users/srbb21/AppData/Local/Temp/rx18_gr30001521653382.841.odb,RELAX,Increment    105: Step Time =    1.000,SHELL-1,961,-1.74708,3.25,17.9133,ASSEMBLY_SHELL-1_ALLEL,TI,"shell < TI > < 5 section points > : SPOS, (fraction = 1.0)",119.167
C:/Users/srbb21/AppData/Local/Temp/rx18_gr30001521653382.841.odb,RELAX,Increment    105: Step Time =    1.000,SHELL-1,961,-1.74708,3.25,17.9133,ASSEMBLY_SHELL-1_ALLEL,TI,"shell < TI > < 5 section points > : SNEG, (fraction = -1.0)",129.95
C:/Users/srbb21/AppData/Local/Temp/rx18_gr30001521653382.841.odb,RELAX,Increment    105: Step Time =    1.000,SHELL-1,962,-1.74708,3.75,17.9133,ASSEMBLY_SHELL-1_ALLEL,TI,"shell < TI > < 5 section points > : SPOS, (fraction = 1.0)",120.252
C:/Users/srbb21/AppData/Local/Temp/rx18_gr30001521653382.841.odb,RELAX,Increment    105: Step Time =    1.000,SHELL-1,962,-1.74708,3.75,17.9133,ASSEMBLY_SHELL-1_ALLEL,TI,"shell < TI > < 5 section points > : SNEG, (fraction = -1.0)",129.01
C:/Users/srbb21/AppData/Local/Temp/rx18_gr30001521653382.841.odb,RELAX,Increment    105: Step Time =    1.000,SHELL-1,963,-1.74708,4.25,17.9133,ASSEMBLY_SHELL-1_ALLEL,TI,"shell < TI > < 5 section points > : SNEG, (fraction = -1.0)",127.861
C:/Users/srbb21/AppData/Local/Temp/rx18_gr30001521653382.841.odb,RELAX,Increment    105: Step Time =    1.000,SHELL-1,963,-1.74708,4.25,17.9133,ASSEMBLY_SHELL-1_ALLEL,TI,"shell < TI > < 5 section points > : SPOS, (fraction = 1.0)",121.486
C:/Users/srbb21/AppData/Local/Temp/rx18_gr30001521653382.841.odb,RELAX,Increment    105: Step Time =    1.000,SHELL-1,964,-1.74708,4.75,17.9133,ASSEMBLY_SHELL-1_ALLEL,TI,"shell < TI > < 5 section points > : SPOS, (fraction = 1.0)",122.869
C:/Users/srbb21/AppData/Local/Temp/rx18_gr30001521653382.841.odb,RELAX,Increment    105: Step Time =    1.000,SHELL-1,964,-1.74708,4.75,17.9133,ASSEMBLY_SHELL-1_ALLEL,TI,"shell < TI > < 5 section points > : SNEG, (fraction = -1.0)",126.485
C:/Users/srbb21/AppData/Local/Temp/rx18_gr30001521653382.841.odb,RELAX,Increment    105: Step Time =    1.000,SHELL-1,965,-1.74708,5.25,17.9133,ASSEMBLY_SHELL-1_ALLEL,TI,"shell < TI > < 5 section points > : SPOS, (fraction = 1.0)",124.404
C:/Users/srbb21/AppData/Local/Temp/rx18_gr30001521653382.841.odb,RELAX,Increment    105: Step Time =    1.000,SHELL-1,965,-1.74708,5.25,17.9133,ASSEMBLY_SHELL-1_ALLEL,TI,"shell < TI > < 5 section points > : SNEG, (fraction = -1.0)",124.865
C:/Users/srbb21/AppData/Local/Temp/rx18_gr30001521653382.841.odb,RELAX,Increment    105: Step Time =    1.000,SHELL-1,966,-1.74708,5.75,17.9133,ASSEMBLY_SHELL-1_ALLEL,TI,"shell < TI > < 5 section points > : SPOS, (fraction = 1.0)",126.096
C:/Users/srbb21/AppData/Local/Temp/rx18_gr30001521653382.841.odb,RELAX,Increment    105: Step Time =    1.000,SHELL-1,966,-1.74708,5.75,17.9133,ASSEMBLY_SHELL-1_ALLEL,TI,"shell < TI > < 5 section points > : SNEG, (fraction = -1.0)",122.994
C:/Users/srbb21/AppData/Local/Temp/rx18_gr30001521653382.841.odb,RELAX,Increment    105: Step Time =    1.000,SHELL-1,967,-1.74708,6.25,17.9133,ASSEMBLY_SHELL-1_ALLEL,TI,"shell < TI > < 5 section points > : SPOS, (fraction = 1.0)",127.952
C:/Users/srbb21/AppData/Local/Temp/rx18_gr30001521653382.841.odb,RELAX,Increment    105: Step Time =    1.000,SHELL-1,967,-1.74708,6.25,17.9133,ASSEMBLY_SHELL-1_ALLEL,TI,"shell < TI > < 5 section points > : SNEG, (fraction = -1.0)",120.865
C:/Users/srbb21/AppData/Local/Temp/rx18_gr30001521653382.841.odb,RELAX,Increment    105: Step Time =    1.000,SHELL-1,968,-1.74708,6.75,17.9133,ASSEMBLY_SHELL-1_ALLEL,TI,"shell < TI > < 5 section points > : SNEG, (fraction = -1.0)",118.484
C:/Users/srbb21/AppData/Local/Temp/rx18_gr30001521653382.841.odb,RELAX,Increment    105: Step Time =    1.000,SHELL-1,968,-1.74708,6.75,17.9133,ASSEMBLY_SHELL-1_ALLEL,TI,"shell < TI > < 5 section points > : SPOS, (fraction = 1.0)",129.981
C:/Users/srbb21/AppData/Local/Temp/rx18_gr30001521653382.841.odb,RELAX,Increment    105: Step Time =    1.000,SHELL-1,969,-1.74708,7.25,17.9133,ASSEMBLY_SHELL-1_ALLEL,TI,"shell < TI > < 5 section points > : SPOS, (fraction = 1.0)",132.19
C:/Users/srbb21/AppData/Local/Temp/rx18_gr30001521653382.841.odb,RELAX,Increment    105: Step Time =    1.000,SHELL-1,969,-1.74708,7.25,17.9133,ASSEMBLY_SHELL-1_ALLEL,TI,"shell < TI > < 5 section points > : SNEG, (fraction = -1.0)",115.856
C:/Users/srbb21/AppData/Local/Temp/rx18_gr30001521653382.841.odb,RELAX,Increment    105: Step Time =    1.000,SHELL-1,970,-1.74708,7.75,17.9133,ASSEMBLY_SHELL-1_ALLEL,TI,"shell < TI > < 5 section points > : SPOS, (fraction = 1.0)",134.589
C:/Users/srbb21/AppData/Local/Temp/rx18_gr30001521653382.841.odb,RELAX,Increment    105: Step Time =    1.000,SHELL-1,970,-1.74708,7.75,17.9133,ASSEMBLY_SHELL-1_ALLEL,TI,"shell < TI > < 5 section points > : SNEG, (fraction = -1.0)",112.996
C:/Users/srbb21/AppData/Local/Temp/rx18_gr30001521653382.841.odb,RELAX,Increment    105: Step Time =    1.000,SHELL-1,971,-1.74708,8.25,17.9133,ASSEMBLY_SHELL-1_ALLEL,TI,"shell < TI > < 5 section points > : SPOS, (fraction = 1.0)",137.179
C:/Users/srbb21/AppData/Local/Temp/rx18_gr30001521653382.841.odb,RELAX,Increment    105: Step Time =    1.000,SHELL-1,971,-1.74708,8.25,17.9133,ASSEMBLY_SHELL-1_ALLEL,TI,"shell < TI > < 5 section points > : SNEG, (fraction = -1.0)",109.915
C:/Users/srbb21/AppData/Local/Temp/rx18_gr30001521653382.841.odb,RELAX,Increment    105: Step Time =    1.000,SHELL-1,972,-1.74708,8.75,17.9133,ASSEMBLY_SHELL-1_ALLEL,TI,"shell < TI > < 5 section points > : SNEG, (fraction = -1.0)",106.639
C:/Users/srbb21/AppData/Local/Temp/rx18_gr30001521653382.841.odb,RELAX,Increment    105: Step Time =    1.000,SHELL-1,972,-1.74708,8.75,17.9133,ASSEMBLY_SHELL-1_ALLEL,TI,"shell < TI > < 5 section points > : SPOS, (fraction = 1.0)",139.967
C:/Users/srbb21/AppData/Local/Temp/rx18_gr30001521653382.841.odb,RELAX,Increment    105: Step Time =    1.000,SHELL-1,973,-1.24888,-8.75,17.9549,ASSEMBLY_SHELL-1_ALLEL,TI,"shell < TI > < 5 section points > : SPOS, (fraction = 1.0)",139.971
C:/Users/srbb21/AppData/Local/Temp/rx18_gr30001521653382.841.odb,RELAX,Increment    105: Step Time =    1.000,SHELL-1,973,-1.24888,-8.75,17.9549,ASSEMBLY_SHELL-1_ALLEL,TI,"shell < TI > < 5 section points > : SNEG, (fraction = -1.0)",106.789
C:/Users/srbb21/AppData/Local/Temp/rx18_gr30001521653382.841.odb,RELAX,Increment    105: Step Time =    1.000,SHELL-1,974,-1.24888,-8.25,17.9549,ASSEMBLY_SHELL-1_ALLEL,TI,"shell < TI > < 5 section points > : SPOS, (fraction = 1.0)",137.21
C:/Users/srbb21/AppData/Local/Temp/rx18_gr30001521653382.841.odb,RELAX,Increment    105: Step Time =    1.000,SHELL-1,974,-1.24888,-8.25,17.9549,ASSEMBLY_SHELL-1_ALLEL,TI,"shell < TI > < 5 section points > : SNEG, (fraction = -1.0)",110.021
C:/Users/srbb21/AppData/Local/Temp/rx18_gr30001521653382.841.odb,RELAX,Increment    105: Step Time =    1.000,SHELL-1,975,-1.24888,-7.75,17.9549,ASSEMBLY_SHELL-1_ALLEL,TI,"shell < TI > < 5 section points > : SPOS, (fraction = 1.0)",134.642
C:/Users/srbb21/AppData/Local/Temp/rx18_gr30001521653382.841.odb,RELAX,Increment    105: Step Time =    1.000,SHELL-1,975,-1.24888,-7.75,17.9549,ASSEMBLY_SHELL-1_ALLEL,TI,"shell < TI > < 5 section points > : SNEG, (fraction = -1.0)",113.061
C:/Users/srbb21/AppData/Local/Temp/rx18_gr30001521653382.841.odb,RELAX,Increment    105: Step Time =    1.000,SHELL-1,976,-1.24888,-7.25,17.9549,ASSEMBLY_SHELL-1_ALLEL,TI,"shell < TI > < 5 section points > : SNEG, (fraction = -1.0)",115.887
C:/Users/srbb21/AppData/Local/Temp/rx18_gr30001521653382.841.odb,RELAX,Increment    105: Step Time =    1.000,SHELL-1,976,-1.24888,-7.25,17.9549,ASSEMBLY_SHELL-1_ALLEL,TI,"shell < TI > < 5 section points > : SPOS, (fraction = 1.0)",132.262
C:/Users/srbb21/AppData/Local/Temp/rx18_gr30001521653382.841.odb,RELAX,Increment    105: Step Time =    1.000,SHELL-1,977,-1.24888,-6.75,17.9549,ASSEMBLY_SHELL-1_ALLEL,TI,"shell < TI > < 5 section points > : SPOS, (fraction = 1.0)",130.065
C:/Users/srbb21/AppData/Local/Temp/rx18_gr30001521653382.841.odb,RELAX,Increment    105: Step Time =    1.000,SHELL-1,977,-1.24888,-6.75,17.9549,ASSEMBLY_SHELL-1_ALLEL,TI,"shell < TI > < 5 section points > : SNEG, (fraction = -1.0)",118.486
C:/Users/srbb21/AppData/Local/Temp/rx18_gr30001521653382.841.odb,RELAX,Increment    105: Step Time =    1.000,SHELL-1,978,-1.24888,-6.25,17.9549,ASSEMBLY_SHELL-1_ALLEL,TI,"shell < TI > < 5 section points > : SPOS, (fraction = 1.0)",128.045
C:/Users/srbb21/AppData/Local/Temp/rx18_gr30001521653382.841.odb,RELAX,Increment    105: Step Time =    1.000,SHELL-1,978,-1.24888,-6.25,17.9549,ASSEMBLY_SHELL-1_ALLEL,TI,"shell < TI > < 5 section points > : SNEG, (fraction = -1.0)",120.845
C:/Users/srbb21/AppData/Local/Temp/rx18_gr30001521653382.841.odb,RELAX,Increment    105: Step Time =    1.000,SHELL-1,979,-1.24888,-5.75,17.9549,ASSEMBLY_SHELL-1_ALLEL,TI,"shell < TI > < 5 section points > : SPOS, (fraction = 1.0)",126.192
C:/Users/srbb21/AppData/Local/Temp/rx18_gr30001521653382.841.odb,RELAX,Increment    105: Step Time =    1.000,SHELL-1,979,-1.24888,-5.75,17.9549,ASSEMBLY_SHELL-1_ALLEL,TI,"shell < TI > < 5 section points > : SNEG, (fraction = -1.0)",122.959
C:/Users/srbb21/AppData/Local/Temp/rx18_gr30001521653382.841.odb,RELAX,Increment    105: Step Time =    1.000,SHELL-1,980,-1.24888,-5.25,17.9549,ASSEMBLY_SHELL-1_ALLEL,TI,"shell < TI > < 5 section points > : SNEG, (fraction = -1.0)",124.825
C:/Users/srbb21/AppData/Local/Temp/rx18_gr30001521653382.841.odb,RELAX,Increment    105: Step Time =    1.000,SHELL-1,980,-1.24888,-5.25,17.9549,ASSEMBLY_SHELL-1_ALLEL,TI,"shell < TI > < 5 section points > : SPOS, (fraction = 1.0)",124.498
C:/Users/srbb21/AppData/Local/Temp/rx18_gr30001521653382.841.odb,RELAX,Increment    105: Step Time =    1.000,SHELL-1,981,-1.24888,-4.75,17.9549,ASSEMBLY_SHELL-1_ALLEL,TI,"shell < TI > < 5 section points > : SPOS, (fraction = 1.0)",122.956
C:/Users/srbb21/AppData/Local/Temp/rx18_gr30001521653382.841.odb,RELAX,Increment    105: Step Time =    1.000,SHELL-1,981,-1.24888,-4.75,17.9549,ASSEMBLY_SHELL-1_ALLEL,TI,"shell < TI > < 5 section points > : SNEG, (fraction = -1.0)",126.447
C:/Users/srbb21/AppData/Local/Temp/rx18_gr30001521653382.841.odb,RELAX,Increment    105: Step Time =    1.000,SHELL-1,982,-1.24888,-4.25,17.9549,ASSEMBLY_SHELL-1_ALLEL,TI,"shell < TI > < 5 section points > : SPOS, (fraction = 1.0)",121.561
C:/Users/srbb21/AppData/Local/Temp/rx18_gr30001521653382.841.odb,RELAX,Increment    105: Step Time =    1.000,SHELL-1,982,-1.24888,-4.25,17.9549,ASSEMBLY_SHELL-1_ALLEL,TI,"shell < TI > < 5 section points > : SNEG, (fraction = -1.0)",127.833
C:/Users/srbb21/AppData/Local/Temp/rx18_gr30001521653382.841.odb,RELAX,Increment    105: Step Time =    1.000,SHELL-1,983,-1.24888,-3.75,17.9549,ASSEMBLY_SHELL-1_ALLEL,TI,"shell < TI > < 5 section points > : SPOS, (fraction = 1.0)",120.311
C:/Users/srbb21/AppData/Local/Temp/rx18_gr30001521653382.841.odb,RELAX,Increment    105: Step Time =    1.000,SHELL-1,983,-1.24888,-3.75,17.9549,ASSEMBLY_SHELL-1_ALLEL,TI,"shell < TI > < 5 section points > : SNEG, (fraction = -1.0)",128.996
C:/Users/srbb21/AppData/Local/Temp/rx18_gr30001521653382.841.odb,RELAX,Increment    105: Step Time =    1.000,SHELL-1,984,-1.24888,-3.25,17.9549,ASSEMBLY_SHELL-1_ALLEL,TI,"shell < TI > < 5 section points > : SPOS, (fraction = 1.0)",119.208
C:/Users/srbb21/AppData/Local/Temp/rx18_gr30001521653382.841.odb,RELAX,Increment    105: Step Time =    1.000,SHELL-1,984,-1.24888,-3.25,17.9549,ASSEMBLY_SHELL-1_ALLEL,TI,"shell < TI > < 5 section points > : SNEG, (fraction = -1.0)",129.954
C:/Users/srbb21/AppData/Local/Temp/rx18_gr30001521653382.841.odb,RELAX,Increment    105: Step Time =    1.000,SHELL-1,985,-1.24888,-2.75,17.9549,ASSEMBLY_SHELL-1_ALLEL,TI,"shell < TI > < 5 section points > : SNEG, (fraction = -1.0)",130.725
C:/Users/srbb21/AppData/Local/Temp/rx18_gr30001521653382.841.odb,RELAX,Increment    105: Step Time =    1.000,SHELL-1,985,-1.24888,-2.75,17.9549,ASSEMBLY_SHELL-1_ALLEL,TI,"shell < TI > < 5 section points > : SPOS, (fraction = 1.0)",118.251
C:/Users/srbb21/AppData/Local/Temp/rx18_gr30001521653382.841.odb,RELAX,Increment    105: Step Time =    1.000,SHELL-1,986,-1.24888,-2.25,17.9549,ASSEMBLY_SHELL-1_ALLEL,TI,"shell < TI > < 5 section points > : SPOS, (fraction = 1.0)",117.447
C:/Users/srbb21/AppData/Local/Temp/rx18_gr30001521653382.841.odb,RELAX,Increment    105: Step Time =    1.000,SHELL-1,986,-1.24888,-2.25,17.9549,ASSEMBLY_SHELL-1_ALLEL,TI,"shell < TI > < 5 section points > : SNEG, (fraction = -1.0)",131.331
C:/Users/srbb21/AppData/Local/Temp/rx18_gr30001521653382.841.odb,RELAX,Increment    105: Step Time =    1.000,SHELL-1,987,-1.24888,-1.75,17.9549,ASSEMBLY_SHELL-1_ALLEL,TI,"shell < TI > < 5 section points > : SPOS, (fraction = 1.0)",116.796
C:/Users/srbb21/AppData/Local/Temp/rx18_gr30001521653382.841.odb,RELAX,Increment    105: Step Time =    1.000,SHELL-1,987,-1.24888,-1.75,17.9549,ASSEMBLY_SHELL-1_ALLEL,TI,"shell < TI > < 5 section points > : SNEG, (fraction = -1.0)",131.789
C:/Users/srbb21/AppData/Local/Temp/rx18_gr30001521653382.841.odb,RELAX,Increment    105: Step Time =    1.000,SHELL-1,988,-1.24888,-1.25,17.9549,ASSEMBLY_SHELL-1_ALLEL,TI,"shell < TI > < 5 section points > : SPOS, (fraction = 1.0)",116.306
C:/Users/srbb21/AppData/Local/Temp/rx18_gr30001521653382.841.odb,RELAX,Increment    105: Step Time =    1.000,SHELL-1,988,-1.24888,-1.25,17.9549,ASSEMBLY_SHELL-1_ALLEL,TI,"shell < TI > < 5 section points > : SNEG, (fraction = -1.0)",132.118
C:/Users/srbb21/AppData/Local/Temp/rx18_gr30001521653382.841.odb,RELAX,Increment    105: Step Time =    1.000,SHELL-1,989,-1.24888,-0.75,17.9549,ASSEMBLY_SHELL-1_ALLEL,TI,"shell < TI > < 5 section points > : SNEG, (fraction = -1.0)",132.327
C:/Users/srbb21/AppData/Local/Temp/rx18_gr30001521653382.841.odb,RELAX,Increment    105: Step Time =    1.000,SHELL-1,989,-1.24888,-0.75,17.9549,ASSEMBLY_SHELL-1_ALLEL,TI,"shell < TI > < 5 section points > : SPOS, (fraction = 1.0)",115.975
C:/Users/srbb21/AppData/Local/Temp/rx18_gr30001521653382.841.odb,RELAX,Increment    105: Step Time =    1.000,SHELL-1,990,-1.24888,-0.25,17.9549,ASSEMBLY_SHELL-1_ALLEL,TI,"shell < TI > < 5 section points > : SPOS, (fraction = 1.0)",115.811
C:/Users/srbb21/AppData/Local/Temp/rx18_gr30001521653382.841.odb,RELAX,Increment    105: Step Time =    1.000,SHELL-1,990,-1.24888,-0.25,17.9549,ASSEMBLY_SHELL-1_ALLEL,TI,"shell < TI > < 5 section points > : SNEG, (fraction = -1.0)",132.431
C:/Users/srbb21/AppData/Local/Temp/rx18_gr30001521653382.841.odb,RELAX,Increment    105: Step Time =    1.000,SHELL-1,991,-1.24888,0.25,17.9549,ASSEMBLY_SHELL-1_ALLEL,TI,"shell < TI > < 5 section points > : SPOS, (fraction = 1.0)",115.811
C:/Users/srbb21/AppData/Local/Temp/rx18_gr30001521653382.841.odb,RELAX,Increment    105: Step Time =    1.000,SHELL-1,991,-1.24888,0.25,17.9549,ASSEMBLY_SHELL-1_ALLEL,TI,"shell < TI > < 5 section points > : SNEG, (fraction = -1.0)",132.431
C:/Users/srbb21/AppData/Local/Temp/rx18_gr30001521653382.841.odb,RELAX,Increment    105: Step Time =    1.000,SHELL-1,992,-1.24888,0.75,17.9549,ASSEMBLY_SHELL-1_ALLEL,TI,"shell < TI > < 5 section points > : SPOS, (fraction = 1.0)",115.975
C:/Users/srbb21/AppData/Local/Temp/rx18_gr30001521653382.841.odb,RELAX,Increment    105: Step Time =    1.000,SHELL-1,992,-1.24888,0.75,17.9549,ASSEMBLY_SHELL-1_ALLEL,TI,"shell < TI > < 5 section points > : SNEG, (fraction = -1.0)",132.327
C:/Users/srbb21/AppData/Local/Temp/rx18_gr30001521653382.841.odb,RELAX,Increment    105: Step Time =    1.000,SHELL-1,993,-1.24888,1.25,17.9549,ASSEMBLY_SHELL-1_ALLEL,TI,"shell < TI > < 5 section points > : SNEG, (fraction = -1.0)",132.118
C:/Users/srbb21/AppData/Local/Temp/rx18_gr30001521653382.841.odb,RELAX,Increment    105: Step Time =    1.000,SHELL-1,993,-1.24888,1.25,17.9549,ASSEMBLY_SHELL-1_ALLEL,TI,"shell < TI > < 5 section points > : SPOS, (fraction = 1.0)",116.306
C:/Users/srbb21/AppData/Local/Temp/rx18_gr30001521653382.841.odb,RELAX,Increment    105: Step Time =    1.000,SHELL-1,994,-1.24888,1.75,17.9549,ASSEMBLY_SHELL-1_ALLEL,TI,"shell < TI > < 5 section points > : SPOS, (fraction = 1.0)",116.796
C:/Users/srbb21/AppData/Local/Temp/rx18_gr30001521653382.841.odb,RELAX,Increment    105: Step Time =    1.000,SHELL-1,994,-1.24888,1.75,17.9549,ASSEMBLY_SHELL-1_ALLEL,TI,"shell < TI > < 5 section points > : SNEG, (fraction = -1.0)",131.789
C:/Users/srbb21/AppData/Local/Temp/rx18_gr30001521653382.841.odb,RELAX,Increment    105: Step Time =    1.000,SHELL-1,995,-1.24888,2.25,17.9549,ASSEMBLY_SHELL-1_ALLEL,TI,"shell < TI > < 5 section points > : SPOS, (fraction = 1.0)",117.447
C:/Users/srbb21/AppData/Local/Temp/rx18_gr30001521653382.841.odb,RELAX,Increment    105: Step Time =    1.000,SHELL-1,995,-1.24888,2.25,17.9549,ASSEMBLY_SHELL-1_ALLEL,TI,"shell < TI > < 5 section points > : SNEG, (fraction = -1.0)",131.331
C:/Users/srbb21/AppData/Local/Temp/rx18_gr30001521653382.841.odb,RELAX,Increment    105: Step Time =    1.000,SHELL-1,996,-1.24888,2.75,17.9549,ASSEMBLY_SHELL-1_ALLEL,TI,"shell < TI > < 5 section points > : SPOS, (fraction = 1.0)",118.251
C:/Users/srbb21/AppData/Local/Temp/rx18_gr30001521653382.841.odb,RELAX,Increment    105: Step Time =    1.000,SHELL-1,996,-1.24888,2.75,17.9549,ASSEMBLY_SHELL-1_ALLEL,TI,"shell < TI > < 5 section points > : SNEG, (fraction = -1.0)",130.725
C:/Users/srbb21/AppData/Local/Temp/rx18_gr30001521653382.841.odb,RELAX,Increment    105: Step Time =    1.000,SHELL-1,997,-1.24888,3.25,17.9549,ASSEMBLY_SHELL-1_ALLEL,TI,"shell < TI > < 5 section points > : SNEG, (fraction = -1.0)",129.954
C:/Users/srbb21/AppData/Local/Temp/rx18_gr30001521653382.841.odb,RELAX,Increment    105: Step Time =    1.000,SHELL-1,997,-1.24888,3.25,17.9549,ASSEMBLY_SHELL-1_ALLEL,TI,"shell < TI > < 5 section points > : SPOS, (fraction = 1.0)",119.208
C:/Users/srbb21/AppData/Local/Temp/rx18_gr30001521653382.841.odb,RELAX,Increment    105: Step Time =    1.000,SHELL-1,998,-1.24888,3.75,17.9549,ASSEMBLY_SHELL-1_ALLEL,TI,"shell < TI > < 5 section points > : SPOS, (fraction = 1.0)",120.311
C:/Users/srbb21/AppData/Local/Temp/rx18_gr30001521653382.841.odb,RELAX,Increment    105: Step Time =    1.000,SHELL-1,998,-1.24888,3.75,17.9549,ASSEMBLY_SHELL-1_ALLEL,TI,"shell < TI > < 5 section points > : SNEG, (fraction = -1.0)",128.996
C:/Users/srbb21/AppData/Local/Temp/rx18_gr30001521653382.841.odb,RELAX,Increment    105: Step Time =    1.000,SHELL-1,999,-1.24888,4.25,17.9549,ASSEMBLY_SHELL-1_ALLEL,TI,"shell < TI > < 5 section points > : SPOS, (fraction = 1.0)",121.561
C:/Users/srbb21/AppData/Local/Temp/rx18_gr30001521653382.841.odb,RELAX,Increment    105: Step Time =    1.000,SHELL-1,999,-1.24888,4.25,17.9549,ASSEMBLY_SHELL-1_ALLEL,TI,"shell < TI > < 5 section points > : SNEG, (fraction = -1.0)",127.833
C:/Users/srbb21/AppData/Local/Temp/rx18_gr30001521653382.841.odb,RELAX,Increment    105: Step Time =    1.000,SHELL-1,1000,-1.24888,4.75,17.9549,ASSEMBLY_SHELL-1_ALLEL,TI,"shell < TI > < 5 section points > : SPOS, (fraction = 1.0)",122.956
C:/Users/srbb21/AppData/Local/Temp/rx18_gr30001521653382.841.odb,RELAX,Increment    105: Step Time =    1.000,SHELL-1,1000,-1.24888,4.75,17.9549,ASSEMBLY_SHELL-1_ALLEL,TI,"shell < TI > < 5 section points > : SNEG, (fraction = -1.0)",126.447
C:/Users/srbb21/AppData/Local/Temp/rx18_gr30001521653382.841.odb,RELAX,Increment    105: Step Time =    1.000,SHELL-1,1001,-1.24888,5.25,17.9549,ASSEMBLY_SHELL-1_ALLEL,TI,"shell < TI > < 5 section points > : SPOS, (fraction = 1.0)",124.498
C:/Users/srbb21/AppData/Local/Temp/rx18_gr30001521653382.841.odb,RELAX,Increment    105: Step Time =    1.000,SHELL-1,1001,-1.24888,5.25,17.9549,ASSEMBLY_SHELL-1_ALLEL,TI,"shell < TI > < 5 section points > : SNEG, (fraction = -1.0)",124.825
C:/Users/srbb21/AppData/Local/Temp/rx18_gr30001521653382.841.odb,RELAX,Increment    105: Step Time =    1.000,SHELL-1,1002,-1.24888,5.75,17.9549,ASSEMBLY_SHELL-1_ALLEL,TI,"shell < TI > < 5 section points > : SNEG, (fraction = -1.0)",122.959
C:/Users/srbb21/AppData/Local/Temp/rx18_gr30001521653382.841.odb,RELAX,Increment    105: Step Time =    1.000,SHELL-1,1002,-1.24888,5.75,17.9549,ASSEMBLY_SHELL-1_ALLEL,TI,"shell < TI > < 5 section points > : SPOS, (fraction = 1.0)",126.192
C:/Users/srbb21/AppData/Local/Temp/rx18_gr30001521653382.841.odb,RELAX,Increment    105: Step Time =    1.000,SHELL-1,1003,-1.24888,6.25,17.9549,ASSEMBLY_SHELL-1_ALLEL,TI,"shell < TI > < 5 section points > : SPOS, (fraction = 1.0)",128.045
C:/Users/srbb21/AppData/Local/Temp/rx18_gr30001521653382.841.odb,RELAX,Increment    105: Step Time =    1.000,SHELL-1,1003,-1.24888,6.25,17.9549,ASSEMBLY_SHELL-1_ALLEL,TI,"shell < TI > < 5 section points > : SNEG, (fraction = -1.0)",120.845
C:/Users/srbb21/AppData/Local/Temp/rx18_gr30001521653382.841.odb,RELAX,Increment    105: Step Time =    1.000,SHELL-1,1004,-1.24888,6.75,17.9549,ASSEMBLY_SHELL-1_ALLEL,TI,"shell < TI > < 5 section points > : SPOS, (fraction = 1.0)",130.065
C:/Users/srbb21/AppData/Local/Temp/rx18_gr30001521653382.841.odb,RELAX,Increment    105: Step Time =    1.000,SHELL-1,1004,-1.24888,6.75,17.9549,ASSEMBLY_SHELL-1_ALLEL,TI,"shell < TI > < 5 section points > : SNEG, (fraction = -1.0)",118.486
C:/Users/srbb21/AppData/Local/Temp/rx18_gr30001521653382.841.odb,RELAX,Increment    105: Step Time =    1.000,SHELL-1,1005,-1.24888,7.25,17.9549,ASSEMBLY_SHELL-1_ALLEL,TI,"shell < TI > < 5 section points > : SPOS, (fraction = 1.0)",132.262
C:/Users/srbb21/AppData/Local/Temp/rx18_gr30001521653382.841.odb,RELAX,Increment    105: Step Time =    1.000,SHELL-1,1005,-1.24888,7.25,17.9549,ASSEMBLY_SHELL-1_ALLEL,TI,"shell < TI > < 5 section points > : SNEG, (fraction = -1.0)",115.887
C:/Users/srbb21/AppData/Local/Temp/rx18_gr30001521653382.841.odb,RELAX,Increment    105: Step Time =    1.000,SHELL-1,1006,-1.24888,7.75,17.9549,ASSEMBLY_SHELL-1_ALLEL,TI,"shell < TI > < 5 section points > : SNEG, (fraction = -1.0)",113.061
C:/Users/srbb21/AppData/Local/Temp/rx18_gr30001521653382.841.odb,RELAX,Increment    105: Step Time =    1.000,SHELL-1,1006,-1.24888,7.75,17.9549,ASSEMBLY_SHELL-1_ALLEL,TI,"shell < TI > < 5 section points > : SPOS, (fraction = 1.0)",134.642
C:/Users/srbb21/AppData/Local/Temp/rx18_gr30001521653382.841.odb,RELAX,Increment    105: Step Time =    1.000,SHELL-1,1007,-1.24888,8.25,17.9549,ASSEMBLY_SHELL-1_ALLEL,TI,"shell < TI > < 5 section points > : SPOS, (fraction = 1.0)",137.21
C:/Users/srbb21/AppData/Local/Temp/rx18_gr30001521653382.841.odb,RELAX,Increment    105: Step Time =    1.000,SHELL-1,1007,-1.24888,8.25,17.9549,ASSEMBLY_SHELL-1_ALLEL,TI,"shell < TI > < 5 section points > : SNEG, (fraction = -1.0)",110.021
C:/Users/srbb21/AppData/Local/Temp/rx18_gr30001521653382.841.odb,RELAX,Increment    105: Step Time =    1.000,SHELL-1,1008,-1.24888,8.75,17.9549,ASSEMBLY_SHELL-1_ALLEL,TI,"shell < TI > < 5 section points > : SPOS, (fraction = 1.0)",139.971
C:/Users/srbb21/AppData/Local/Temp/rx18_gr30001521653382.841.odb,RELAX,Increment    105: Step Time =    1.000,SHELL-1,1008,-1.24888,8.75,17.9549,ASSEMBLY_SHELL-1_ALLEL,TI,"shell < TI > < 5 section points > : SNEG, (fraction = -1.0)",106.789
C:/Users/srbb21/AppData/Local/Temp/rx18_gr30001521653382.841.odb,RELAX,Increment    105: Step Time =    1.000,SHELL-1,1009,-0.749711,-8.75,17.9826,ASSEMBLY_SHELL-1_ALLEL,TI,"shell < TI > < 5 section points > : SPOS, (fraction = 1.0)",139.974
C:/Users/srbb21/AppData/Local/Temp/rx18_gr30001521653382.841.odb,RELAX,Increment    105: Step Time =    1.000,SHELL-1,1009,-0.749711,-8.75,17.9826,ASSEMBLY_SHELL-1_ALLEL,TI,"shell < TI > < 5 section points > : SNEG, (fraction = -1.0)",106.888
C:/Users/srbb21/AppData/Local/Temp/rx18_gr30001521653382.841.odb,RELAX,Increment    105: Step Time =    1.000,SHELL-1,1010,-0.749711,-8.25,17.9826,ASSEMBLY_SHELL-1_ALLEL,TI,"shell < TI > < 5 section points > : SNEG, (fraction = -1.0)",110.091
C:/Users/srbb21/AppData/Local/Temp/rx18_gr30001521653382.841.odb,RELAX,Increment    105: Step Time =    1.000,SHELL-1,1010,-0.749711,-8.25,17.9826,ASSEMBLY_SHELL-1_ALLEL,TI,"shell < TI > < 5 section points > : SPOS, (fraction = 1.0)",137.232
C:/Users/srbb21/AppData/Local/Temp/rx18_gr30001521653382.841.odb,RELAX,Increment    105: Step Time =    1.000,SHELL-1,1011,-0.749711,-7.75,17.9826,ASSEMBLY_SHELL-1_ALLEL,TI,"shell < TI > < 5 section points > : SPOS, (fraction = 1.0)",134.678
C:/Users/srbb21/AppData/Local/Temp/rx18_gr30001521653382.841.odb,RELAX,Increment    105: Step Time =    1.000,SHELL-1,1011,-0.749711,-7.75,17.9826,ASSEMBLY_SHELL-1_ALLEL,TI,"shell < TI > < 5 section points > : SNEG, (fraction = -1.0)",113.105
C:/Users/srbb21/AppData/Local/Temp/rx18_gr30001521653382.841.odb,RELAX,Increment    105: Step Time =    1.000,SHELL-1,1012,-0.749711,-7.25,17.9826,ASSEMBLY_SHELL-1_ALLEL,TI,"shell < TI > < 5 section points > : SPOS, (fraction = 1.0)",132.309
C:/Users/srbb21/AppData/Local/Temp/rx18_gr30001521653382.841.odb,RELAX,Increment    105: Step Time =    1.000,SHELL-1,1012,-0.749711,-7.25,17.9826,ASSEMBLY_SHELL-1_ALLEL,TI,"shell < TI > < 5 section points > : SNEG, (fraction = -1.0)",115.907
C:/Users/srbb21/AppData/Local/Temp/rx18_gr30001521653382.841.odb,RELAX,Increment    105: Step Time =    1.000,SHELL-1,1013,-0.749711,-6.75,17.9826,ASSEMBLY_SHELL-1_ALLEL,TI,"shell < TI > < 5 section points > : SPOS, (fraction = 1.0)",130.121
C:/Users/srbb21/AppData/Local/Temp/rx18_gr30001521653382.841.odb,RELAX,Increment    105: Step Time =    1.000,SHELL-1,1013,-0.749711,-6.75,17.9826,ASSEMBLY_SHELL-1_ALLEL,TI,"shell < TI > < 5 section points > : SNEG, (fraction = -1.0)",118.487
C:/Users/srbb21/AppData/Local/Temp/rx18_gr30001521653382.841.odb,RELAX,Increment    105: Step Time =    1.000,SHELL-1,1014,-0.749711,-6.25,17.9826,ASSEMBLY_SHELL-1_ALLEL,TI,"shell < TI > < 5 section points > : SNEG, (fraction = -1.0)",120.833
C:/Users/srbb21/AppData/Local/Temp/rx18_gr30001521653382.841.odb,RELAX,Increment    105: Step Time =    1.000,SHELL-1,1014,-0.749711,-6.25,17.9826,ASSEMBLY_SHELL-1_ALLEL,TI,"shell < TI > < 5 section points > : SPOS, (fraction = 1.0)",128.105
C:/Users/srbb21/AppData/Local/Temp/rx18_gr30001521653382.841.odb,RELAX,Increment    105: Step Time =    1.000,SHELL-1,1015,-0.749711,-5.75,17.9826,ASSEMBLY_SHELL-1_ALLEL,TI,"shell < TI > < 5 section points > : SPOS, (fraction = 1.0)",126.255
C:/Users/srbb21/AppData/Local/Temp/rx18_gr30001521653382.841.odb,RELAX,Increment    105: Step Time =    1.000,SHELL-1,1015,-0.749711,-5.75,17.9826,ASSEMBLY_SHELL-1_ALLEL,TI,"shell < TI > < 5 section points > : SNEG, (fraction = -1.0)",122.938
C:/Users/srbb21/AppData/Local/Temp/rx18_gr30001521653382.841.odb,RELAX,Increment    105: Step Time =    1.000,SHELL-1,1016,-0.749711,-5.25,17.9826,ASSEMBLY_SHELL-1_ALLEL,TI,"shell < TI > < 5 section points > : SPOS, (fraction = 1.0)",124.559
C:/Users/srbb21/AppData/Local/Temp/rx18_gr30001521653382.841.odb,RELAX,Increment    105: Step Time =    1.000,SHELL-1,1016,-0.749711,-5.25,17.9826,ASSEMBLY_SHELL-1_ALLEL,TI,"shell < TI > < 5 section points > : SNEG, (fraction = -1.0)",124.8
C:/Users/srbb21/AppData/Local/Temp/rx18_gr30001521653382.841.odb,RELAX,Increment    105: Step Time =    1.000,SHELL-1,1017,-0.749711,-4.75,17.9826,ASSEMBLY_SHELL-1_ALLEL,TI,"shell < TI > < 5 section points > : SPOS, (fraction = 1.0)",123.012
C:/Users/srbb21/AppData/Local/Temp/rx18_gr30001521653382.841.odb,RELAX,Increment    105: Step Time =    1.000,SHELL-1,1017,-0.749711,-4.75,17.9826,ASSEMBLY_SHELL-1_ALLEL,TI,"shell < TI > < 5 section points > : SNEG, (fraction = -1.0)",126.423
C:/Users/srbb21/AppData/Local/Temp/rx18_gr30001521653382.841.odb,RELAX,Increment    105: Step Time =    1.000,SHELL-1,1018,-0.749711,-4.25,17.9826,ASSEMBLY_SHELL-1_ALLEL,TI,"shell < TI > < 5 section points > : SPOS, (fraction = 1.0)",121.609
C:/Users/srbb21/AppData/Local/Temp/rx18_gr30001521653382.841.odb,RELAX,Increment    105: Step Time =    1.000,SHELL-1,1018,-0.749711,-4.25,17.9826,ASSEMBLY_SHELL-1_ALLEL,TI,"shell < TI > < 5 section points > : SNEG, (fraction = -1.0)",127.814
C:/Users/srbb21/AppData/Local/Temp/rx18_gr30001521653382.841.odb,RELAX,Increment    105: Step Time =    1.000,SHELL-1,1019,-0.749711,-3.75,17.9826,ASSEMBLY_SHELL-1_ALLEL,TI,"shell < TI > < 5 section points > : SNEG, (fraction = -1.0)",128.987
C:/Users/srbb21/AppData/Local/Temp/rx18_gr30001521653382.841.odb,RELAX,Increment    105: Step Time =    1.000,SHELL-1,1019,-0.749711,-3.75,17.9826,ASSEMBLY_SHELL-1_ALLEL,TI,"shell < TI > < 5 section points > : SPOS, (fraction = 1.0)",120.35
C:/Users/srbb21/AppData/Local/Temp/rx18_gr30001521653382.841.odb,RELAX,Increment    105: Step Time =    1.000,SHELL-1,1020,-0.749711,-3.25,17.9826,ASSEMBLY_SHELL-1_ALLEL,TI,"shell < TI > < 5 section points > : SPOS, (fraction = 1.0)",119.233
C:/Users/srbb21/AppData/Local/Temp/rx18_gr30001521653382.841.odb,RELAX,Increment    105: Step Time =    1.000,SHELL-1,1020,-0.749711,-3.25,17.9826,ASSEMBLY_SHELL-1_ALLEL,TI,"shell < TI > < 5 section points > : SNEG, (fraction = -1.0)",129.957
C:/Users/srbb21/AppData/Local/Temp/rx18_gr30001521653382.841.odb,RELAX,Increment    105: Step Time =    1.000,SHELL-1,1021,-0.749711,-2.75,17.9826,ASSEMBLY_SHELL-1_ALLEL,TI,"shell < TI > < 5 section points > : SPOS, (fraction = 1.0)",118.264
C:/Users/srbb21/AppData/Local/Temp/rx18_gr30001521653382.841.odb,RELAX,Increment    105: Step Time =    1.000,SHELL-1,1021,-0.749711,-2.75,17.9826,ASSEMBLY_SHELL-1_ALLEL,TI,"shell < TI > < 5 section points > : SNEG, (fraction = -1.0)",130.742
C:/Users/srbb21/AppData/Local/Temp/rx18_gr30001521653382.841.odb,RELAX,Increment    105: Step Time =    1.000,SHELL-1,1022,-0.749711,-2.25,17.9826,ASSEMBLY_SHELL-1_ALLEL,TI,"shell < TI > < 5 section points > : SPOS, (fraction = 1.0)",117.446
C:/Users/srbb21/AppData/Local/Temp/rx18_gr30001521653382.841.odb,RELAX,Increment    105: Step Time =    1.000,SHELL-1,1022,-0.749711,-2.25,17.9826,ASSEMBLY_SHELL-1_ALLEL,TI,"shell < TI > < 5 section points > : SNEG, (fraction = -1.0)",131.361
C:/Users/srbb21/AppData/Local/Temp/rx18_gr30001521653382.841.odb,RELAX,Increment    105: Step Time =    1.000,SHELL-1,1023,-0.749711,-1.75,17.9826,ASSEMBLY_SHELL-1_ALLEL,TI,"shell < TI > < 5 section points > : SNEG, (fraction = -1.0)",131.831
C:/Users/srbb21/AppData/Local/Temp/rx18_gr30001521653382.841.odb,RELAX,Increment    105: Step Time =    1.000,SHELL-1,1023,-0.749711,-1.75,17.9826,ASSEMBLY_SHELL-1_ALLEL,TI,"shell < TI > < 5 section points > : SPOS, (fraction = 1.0)",116.784
C:/Users/srbb21/AppData/Local/Temp/rx18_gr30001521653382.841.odb,RELAX,Increment    105: Step Time =    1.000,SHELL-1,1024,-0.749711,-1.25,17.9826,ASSEMBLY_SHELL-1_ALLEL,TI,"shell < TI > < 5 section points > : SPOS, (fraction = 1.0)",116.282
C:/Users/srbb21/AppData/Local/Temp/rx18_gr30001521653382.841.odb,RELAX,Increment    105: Step Time =    1.000,SHELL-1,1024,-0.749711,-1.25,17.9826,ASSEMBLY_SHELL-1_ALLEL,TI,"shell < TI > < 5 section points > : SNEG, (fraction = -1.0)",132.169
C:/Users/srbb21/AppData/Local/Temp/rx18_gr30001521653382.841.odb,RELAX,Increment    105: Step Time =    1.000,SHELL-1,1025,-0.749711,-0.75,17.9826,ASSEMBLY_SHELL-1_ALLEL,TI,"shell < TI > < 5 section points > : SPOS, (fraction = 1.0)",115.947
C:/Users/srbb21/AppData/Local/Temp/rx18_gr30001521653382.841.odb,RELAX,Increment    105: Step Time =    1.000,SHELL-1,1025,-0.749711,-0.75,17.9826,ASSEMBLY_SHELL-1_ALLEL,TI,"shell < TI > < 5 section points > : SNEG, (fraction = -1.0)",132.388
C:/Users/srbb21/AppData/Local/Temp/rx18_gr30001521653382.841.odb,RELAX,Increment    105: Step Time =    1.000,SHELL-1,1026,-0.749711,-0.25,17.9826,ASSEMBLY_SHELL-1_ALLEL,TI,"shell < TI > < 5 section points > : SPOS, (fraction = 1.0)",115.776
C:/Users/srbb21/AppData/Local/Temp/rx18_gr30001521653382.841.odb,RELAX,Increment    105: Step Time =    1.000,SHELL-1,1026,-0.749711,-0.25,17.9826,ASSEMBLY_SHELL-1_ALLEL,TI,"shell < TI > < 5 section points > : SNEG, (fraction = -1.0)",132.493
C:/Users/srbb21/AppData/Local/Temp/rx18_gr30001521653382.841.odb,RELAX,Increment    105: Step Time =    1.000,SHELL-1,1027,-0.749711,0.25,17.9826,ASSEMBLY_SHELL-1_ALLEL,TI,"shell < TI > < 5 section points > : SNEG, (fraction = -1.0)",132.493
C:/Users/srbb21/AppData/Local/Temp/rx18_gr30001521653382.841.odb,RELAX,Increment    105: Step Time =    1.000,SHELL-1,1027,-0.749711,0.25,17.9826,ASSEMBLY_SHELL-1_ALLEL,TI,"shell < TI > < 5 section points > : SPOS, (fraction = 1.0)",115.776
C:/Users/srbb21/AppData/Local/Temp/rx18_gr30001521653382.841.odb,RELAX,Increment    105: Step Time =    1.000,SHELL-1,1028,-0.749711,0.75,17.9826,ASSEMBLY_SHELL-1_ALLEL,TI,"shell < TI > < 5 section points > : SPOS, (fraction = 1.0)",115.947
C:/Users/srbb21/AppData/Local/Temp/rx18_gr30001521653382.841.odb,RELAX,Increment    105: Step Time =    1.000,SHELL-1,1028,-0.749711,0.75,17.9826,ASSEMBLY_SHELL-1_ALLEL,TI,"shell < TI > < 5 section points > : SNEG, (fraction = -1.0)",132.388
C:/Users/srbb21/AppData/Local/Temp/rx18_gr30001521653382.841.odb,RELAX,Increment    105: Step Time =    1.000,SHELL-1,1029,-0.749711,1.25,17.9826,ASSEMBLY_SHELL-1_ALLEL,TI,"shell < TI > < 5 section points > : SPOS, (fraction = 1.0)",116.282
C:/Users/srbb21/AppData/Local/Temp/rx18_gr30001521653382.841.odb,RELAX,Increment    105: Step Time =    1.000,SHELL-1,1029,-0.749711,1.25,17.9826,ASSEMBLY_SHELL-1_ALLEL,TI,"shell < TI > < 5 section points > : SNEG, (fraction = -1.0)",132.169
C:/Users/srbb21/AppData/Local/Temp/rx18_gr30001521653382.841.odb,RELAX,Increment    105: Step Time =    1.000,SHELL-1,1030,-0.749711,1.75,17.9826,ASSEMBLY_SHELL-1_ALLEL,TI,"shell < TI > < 5 section points > : SPOS, (fraction = 1.0)",116.784
C:/Users/srbb21/AppData/Local/Temp/rx18_gr30001521653382.841.odb,RELAX,Increment    105: Step Time =    1.000,SHELL-1,1030,-0.749711,1.75,17.9826,ASSEMBLY_SHELL-1_ALLEL,TI,"shell < TI > < 5 section points > : SNEG, (fraction = -1.0)",131.831
C:/Users/srbb21/AppData/Local/Temp/rx18_gr30001521653382.841.odb,RELAX,Increment    105: Step Time =    1.000,SHELL-1,1031,-0.749711,2.25,17.9826,ASSEMBLY_SHELL-1_ALLEL,TI,"shell < TI > < 5 section points > : SNEG, (fraction = -1.0)",131.361
C:/Users/srbb21/AppData/Local/Temp/rx18_gr30001521653382.841.odb,RELAX,Increment    105: Step Time =    1.000,SHELL-1,1031,-0.749711,2.25,17.9826,ASSEMBLY_SHELL-1_ALLEL,TI,"shell < TI > < 5 section points > : SPOS, (fraction = 1.0)",117.446
C:/Users/srbb21/AppData/Local/Temp/rx18_gr30001521653382.841.odb,RELAX,Increment    105: Step Time =    1.000,SHELL-1,1032,-0.749711,2.75,17.9826,ASSEMBLY_SHELL-1_ALLEL,TI,"shell < TI > < 5 section points > : SPOS, (fraction = 1.0)",118.264
C:/Users/srbb21/AppData/Local/Temp/rx18_gr30001521653382.841.odb,RELAX,Increment    105: Step Time =    1.000,SHELL-1,1032,-0.749711,2.75,17.9826,ASSEMBLY_SHELL-1_ALLEL,TI,"shell < TI > < 5 section points > : SNEG, (fraction = -1.0)",130.742
C:/Users/srbb21/AppData/Local/Temp/rx18_gr30001521653382.841.odb,RELAX,Increment    105: Step Time =    1.000,SHELL-1,1033,-0.749711,3.25,17.9826,ASSEMBLY_SHELL-1_ALLEL,TI,"shell < TI > < 5 section points > : SPOS, (fraction = 1.0)",119.233
C:/Users/srbb21/AppData/Local/Temp/rx18_gr30001521653382.841.odb,RELAX,Increment    105: Step Time =    1.000,SHELL-1,1033,-0.749711,3.25,17.9826,ASSEMBLY_SHELL-1_ALLEL,TI,"shell < TI > < 5 section points > : SNEG, (fraction = -1.0)",129.957
C:/Users/srbb21/AppData/Local/Temp/rx18_gr30001521653382.841.odb,RELAX,Increment    105: Step Time =    1.000,SHELL-1,1034,-0.749711,3.75,17.9826,ASSEMBLY_SHELL-1_ALLEL,TI,"shell < TI > < 5 section points > : SPOS, (fraction = 1.0)",120.35
C:/Users/srbb21/AppData/Local/Temp/rx18_gr30001521653382.841.odb,RELAX,Increment    105: Step Time =    1.000,SHELL-1,1034,-0.749711,3.75,17.9826,ASSEMBLY_SHELL-1_ALLEL,TI,"shell < TI > < 5 section points > : SNEG, (fraction = -1.0)",128.987
C:/Users/srbb21/AppData/Local/Temp/rx18_gr30001521653382.841.odb,RELAX,Increment    105: Step Time =    1.000,SHELL-1,1035,-0.749711,4.25,17.9826,ASSEMBLY_SHELL-1_ALLEL,TI,"shell < TI > < 5 section points > : SPOS, (fraction = 1.0)",121.609
C:/Users/srbb21/AppData/Local/Temp/rx18_gr30001521653382.841.odb,RELAX,Increment    105: Step Time =    1.000,SHELL-1,1035,-0.749711,4.25,17.9826,ASSEMBLY_SHELL-1_ALLEL,TI,"shell < TI > < 5 section points > : SNEG, (fraction = -1.0)",127.814
C:/Users/srbb21/AppData/Local/Temp/rx18_gr30001521653382.841.odb,RELAX,Increment    105: Step Time =    1.000,SHELL-1,1036,-0.749711,4.75,17.9826,ASSEMBLY_SHELL-1_ALLEL,TI,"shell < TI > < 5 section points > : SNEG, (fraction = -1.0)",126.423
C:/Users/srbb21/AppData/Local/Temp/rx18_gr30001521653382.841.odb,RELAX,Increment    105: Step Time =    1.000,SHELL-1,1036,-0.749711,4.75,17.9826,ASSEMBLY_SHELL-1_ALLEL,TI,"shell < TI > < 5 section points > : SPOS, (fraction = 1.0)",123.012
C:/Users/srbb21/AppData/Local/Temp/rx18_gr30001521653382.841.odb,RELAX,Increment    105: Step Time =    1.000,SHELL-1,1037,-0.749711,5.25,17.9826,ASSEMBLY_SHELL-1_ALLEL,TI,"shell < TI > < 5 section points > : SPOS, (fraction = 1.0)",124.559
C:/Users/srbb21/AppData/Local/Temp/rx18_gr30001521653382.841.odb,RELAX,Increment    105: Step Time =    1.000,SHELL-1,1037,-0.749711,5.25,17.9826,ASSEMBLY_SHELL-1_ALLEL,TI,"shell < TI > < 5 section points > : SNEG, (fraction = -1.0)",124.8
C:/Users/srbb21/AppData/Local/Temp/rx18_gr30001521653382.841.odb,RELAX,Increment    105: Step Time =    1.000,SHELL-1,1038,-0.749711,5.75,17.9826,ASSEMBLY_SHELL-1_ALLEL,TI,"shell < TI > < 5 section points > : SPOS, (fraction = 1.0)",126.255
C:/Users/srbb21/AppData/Local/Temp/rx18_gr30001521653382.841.odb,RELAX,Increment    105: Step Time =    1.000,SHELL-1,1038,-0.749711,5.75,17.9826,ASSEMBLY_SHELL-1_ALLEL,TI,"shell < TI > < 5 section points > : SNEG, (fraction = -1.0)",122.938
C:/Users/srbb21/AppData/Local/Temp/rx18_gr30001521653382.841.odb,RELAX,Increment    105: Step Time =    1.000,SHELL-1,1039,-0.749711,6.25,17.9826,ASSEMBLY_SHELL-1_ALLEL,TI,"shell < TI > < 5 section points > : SPOS, (fraction = 1.0)",128.105
C:/Users/srbb21/AppData/Local/Temp/rx18_gr30001521653382.841.odb,RELAX,Increment    105: Step Time =    1.000,SHELL-1,1039,-0.749711,6.25,17.9826,ASSEMBLY_SHELL-1_ALLEL,TI,"shell < TI > < 5 section points > : SNEG, (fraction = -1.0)",120.833
C:/Users/srbb21/AppData/Local/Temp/rx18_gr30001521653382.841.odb,RELAX,Increment    105: Step Time =    1.000,SHELL-1,1040,-0.749711,6.75,17.9826,ASSEMBLY_SHELL-1_ALLEL,TI,"shell < TI > < 5 section points > : SNEG, (fraction = -1.0)",118.487
C:/Users/srbb21/AppData/Local/Temp/rx18_gr30001521653382.841.odb,RELAX,Increment    105: Step Time =    1.000,SHELL-1,1040,-0.749711,6.75,17.9826,ASSEMBLY_SHELL-1_ALLEL,TI,"shell < TI > < 5 section points > : SPOS, (fraction = 1.0)",130.121
C:/Users/srbb21/AppData/Local/Temp/rx18_gr30001521653382.841.odb,RELAX,Increment    105: Step Time =    1.000,SHELL-1,1041,-0.749711,7.25,17.9826,ASSEMBLY_SHELL-1_ALLEL,TI,"shell < TI > < 5 section points > : SPOS, (fraction = 1.0)",132.309
C:/Users/srbb21/AppData/Local/Temp/rx18_gr30001521653382.841.odb,RELAX,Increment    105: Step Time =    1.000,SHELL-1,1041,-0.749711,7.25,17.9826,ASSEMBLY_SHELL-1_ALLEL,TI,"shell < TI > < 5 section points > : SNEG, (fraction = -1.0)",115.907
C:/Users/srbb21/AppData/Local/Temp/rx18_gr30001521653382.841.odb,RELAX,Increment    105: Step Time =    1.000,SHELL-1,1042,-0.749711,7.75,17.9826,ASSEMBLY_SHELL-1_ALLEL,TI,"shell < TI > < 5 section points > : SPOS, (fraction = 1.0)",134.678
C:/Users/srbb21/AppData/Local/Temp/rx18_gr30001521653382.841.odb,RELAX,Increment    105: Step Time =    1.000,SHELL-1,1042,-0.749711,7.75,17.9826,ASSEMBLY_SHELL-1_ALLEL,TI,"shell < TI > < 5 section points > : SNEG, (fraction = -1.0)",113.105
C:/Users/srbb21/AppData/Local/Temp/rx18_gr30001521653382.841.odb,RELAX,Increment    105: Step Time =    1.000,SHELL-1,1043,-0.749711,8.25,17.9826,ASSEMBLY_SHELL-1_ALLEL,TI,"shell < TI > < 5 section points > : SPOS, (fraction = 1.0)",137.232
C:/Users/srbb21/AppData/Local/Temp/rx18_gr30001521653382.841.odb,RELAX,Increment    105: Step Time =    1.000,SHELL-1,1043,-0.749711,8.25,17.9826,ASSEMBLY_SHELL-1_ALLEL,TI,"shell < TI > < 5 section points > : SNEG, (fraction = -1.0)",110.091
C:/Users/srbb21/AppData/Local/Temp/rx18_gr30001521653382.841.odb,RELAX,Increment    105: Step Time =    1.000,SHELL-1,1044,-0.749711,8.75,17.9826,ASSEMBLY_SHELL-1_ALLEL,TI,"shell < TI > < 5 section points > : SNEG, (fraction = -1.0)",106.888
C:/Users/srbb21/AppData/Local/Temp/rx18_gr30001521653382.841.odb,RELAX,Increment    105: Step Time =    1.000,SHELL-1,1044,-0.749711,8.75,17.9826,ASSEMBLY_SHELL-1_ALLEL,TI,"shell < TI > < 5 section points > : SPOS, (fraction = 1.0)",139.974
C:/Users/srbb21/AppData/Local/Temp/rx18_gr30001521653382.841.odb,RELAX,Increment    105: Step Time =    1.000,SHELL-1,1045,-0.249968,-8.75,17.9965,ASSEMBLY_SHELL-1_ALLEL,TI,"shell < TI > < 5 section points > : SPOS, (fraction = 1.0)",139.976
C:/Users/srbb21/AppData/Local/Temp/rx18_gr30001521653382.841.odb,RELAX,Increment    105: Step Time =    1.000,SHELL-1,1045,-0.249968,-8.75,17.9965,ASSEMBLY_SHELL-1_ALLEL,TI,"shell < TI > < 5 section points > : SNEG, (fraction = -1.0)",106.938
C:/Users/srbb21/AppData/Local/Temp/rx18_gr30001521653382.841.odb,RELAX,Increment    105: Step Time =    1.000,SHELL-1,1046,-0.249968,-8.25,17.9965,ASSEMBLY_SHELL-1_ALLEL,TI,"shell < TI > < 5 section points > : SPOS, (fraction = 1.0)",137.243
C:/Users/srbb21/AppData/Local/Temp/rx18_gr30001521653382.841.odb,RELAX,Increment    105: Step Time =    1.000,SHELL-1,1046,-0.249968,-8.25,17.9965,ASSEMBLY_SHELL-1_ALLEL,TI,"shell < TI > < 5 section points > : SNEG, (fraction = -1.0)",110.126
C:/Users/srbb21/AppData/Local/Temp/rx18_gr30001521653382.841.odb,RELAX,Increment    105: Step Time =    1.000,SHELL-1,1047,-0.249968,-7.75,17.9965,ASSEMBLY_SHELL-1_ALLEL,TI,"shell < TI > < 5 section points > : SPOS, (fraction = 1.0)",134.696
C:/Users/srbb21/AppData/Local/Temp/rx18_gr30001521653382.841.odb,RELAX,Increment    105: Step Time =    1.000,SHELL-1,1047,-0.249968,-7.75,17.9965,ASSEMBLY_SHELL-1_ALLEL,TI,"shell < TI > < 5 section points > : SNEG, (fraction = -1.0)",113.127
C:/Users/srbb21/AppData/Local/Temp/rx18_gr30001521653382.841.odb,RELAX,Increment    105: Step Time =    1.000,SHELL-1,1048,-0.249968,-7.25,17.9965,ASSEMBLY_SHELL-1_ALLEL,TI,"shell < TI > < 5 section points > : SNEG, (fraction = -1.0)",115.918
C:/Users/srbb21/AppData/Local/Temp/rx18_gr30001521653382.841.odb,RELAX,Increment    105: Step Time =    1.000,SHELL-1,1048,-0.249968,-7.25,17.9965,ASSEMBLY_SHELL-1_ALLEL,TI,"shell < TI > < 5 section points > : SPOS, (fraction = 1.0)",132.332
C:/Users/srbb21/AppData/Local/Temp/rx18_gr30001521653382.841.odb,RELAX,Increment    105: Step Time =    1.000,SHELL-1,1049,-0.249968,-6.75,17.9965,ASSEMBLY_SHELL-1_ALLEL,TI,"shell < TI > < 5 section points > : SPOS, (fraction = 1.0)",130.148
C:/Users/srbb21/AppData/Local/Temp/rx18_gr30001521653382.841.odb,RELAX,Increment    105: Step Time =    1.000,SHELL-1,1049,-0.249968,-6.75,17.9965,ASSEMBLY_SHELL-1_ALLEL,TI,"shell < TI > < 5 section points > : SNEG, (fraction = -1.0)",118.488
C:/Users/srbb21/AppData/Local/Temp/rx18_gr30001521653382.841.odb,RELAX,Increment    105: Step Time =    1.000,SHELL-1,1050,-0.249968,-6.25,17.9965,ASSEMBLY_SHELL-1_ALLEL,TI,"shell < TI > < 5 section points > : SPOS, (fraction = 1.0)",128.135
C:/Users/srbb21/AppData/Local/Temp/rx18_gr30001521653382.841.odb,RELAX,Increment    105: Step Time =    1.000,SHELL-1,1050,-0.249968,-6.25,17.9965,ASSEMBLY_SHELL-1_ALLEL,TI,"shell < TI > < 5 section points > : SNEG, (fraction = -1.0)",120.827
C:/Users/srbb21/AppData/Local/Temp/rx18_gr30001521653382.841.odb,RELAX,Increment    105: Step Time =    1.000,SHELL-1,1051,-0.249968,-5.75,17.9965,ASSEMBLY_SHELL-1_ALLEL,TI,"shell < TI > < 5 section points > : SPOS, (fraction = 1.0)",126.285
C:/Users/srbb21/AppData/Local/Temp/rx18_gr30001521653382.841.odb,RELAX,Increment    105: Step Time =    1.000,SHELL-1,1051,-0.249968,-5.75,17.9965,ASSEMBLY_SHELL-1_ALLEL,TI,"shell < TI > < 5 section points > : SNEG, (fraction = -1.0)",122.927
C:/Users/srbb21/AppData/Local/Temp/rx18_gr30001521653382.841.odb,RELAX,Increment    105: Step Time =    1.000,SHELL-1,1052,-0.249968,-5.25,17.9965,ASSEMBLY_SHELL-1_ALLEL,TI,"shell < TI > < 5 section points > : SPOS, (fraction = 1.0)",124.589
C:/Users/srbb21/AppData/Local/Temp/rx18_gr30001521653382.841.odb,RELAX,Increment    105: Step Time =    1.000,SHELL-1,1052,-0.249968,-5.25,17.9965,ASSEMBLY_SHELL-1_ALLEL,TI,"shell < TI > < 5 section points > : SNEG, (fraction = -1.0)",124.788
C:/Users/srbb21/AppData/Local/Temp/rx18_gr30001521653382.841.odb,RELAX,Increment    105: Step Time =    1.000,SHELL-1,1053,-0.249968,-4.75,17.9965,ASSEMBLY_SHELL-1_ALLEL,TI,"shell < TI > < 5 section points > : SNEG, (fraction = -1.0)",126.412
C:/Users/srbb21/AppData/Local/Temp/rx18_gr30001521653382.841.odb,RELAX,Increment    105: Step Time =    1.000,SHELL-1,1053,-0.249968,-4.75,17.9965,ASSEMBLY_SHELL-1_ALLEL,TI,"shell < TI > < 5 section points > : SPOS, (fraction = 1.0)",123.039
C:/Users/srbb21/AppData/Local/Temp/rx18_gr30001521653382.841.odb,RELAX,Increment    105: Step Time =    1.000,SHELL-1,1054,-0.249968,-4.25,17.9965,ASSEMBLY_SHELL-1_ALLEL,TI,"shell < TI > < 5 section points > : SPOS, (fraction = 1.0)",121.633
C:/Users/srbb21/AppData/Local/Temp/rx18_gr30001521653382.841.odb,RELAX,Increment    105: Step Time =    1.000,SHELL-1,1054,-0.249968,-4.25,17.9965,ASSEMBLY_SHELL-1_ALLEL,TI,"shell < TI > < 5 section points > : SNEG, (fraction = -1.0)",127.806
C:/Users/srbb21/AppData/Local/Temp/rx18_gr30001521653382.841.odb,RELAX,Increment    105: Step Time =    1.000,SHELL-1,1055,-0.249968,-3.75,17.9965,ASSEMBLY_SHELL-1_ALLEL,TI,"shell < TI > < 5 section points > : SPOS, (fraction = 1.0)",120.368
C:/Users/srbb21/AppData/Local/Temp/rx18_gr30001521653382.841.odb,RELAX,Increment    105: Step Time =    1.000,SHELL-1,1055,-0.249968,-3.75,17.9965,ASSEMBLY_SHELL-1_ALLEL,TI,"shell < TI > < 5 section points > : SNEG, (fraction = -1.0)",128.983
C:/Users/srbb21/AppData/Local/Temp/rx18_gr30001521653382.841.odb,RELAX,Increment    105: Step Time =    1.000,SHELL-1,1056,-0.249968,-3.25,17.9965,ASSEMBLY_SHELL-1_ALLEL,TI,"shell < TI > < 5 section points > : SPOS, (fraction = 1.0)",119.246
C:/Users/srbb21/AppData/Local/Temp/rx18_gr30001521653382.841.odb,RELAX,Increment    105: Step Time =    1.000,SHELL-1,1056,-0.249968,-3.25,17.9965,ASSEMBLY_SHELL-1_ALLEL,TI,"shell < TI > < 5 section points > : SNEG, (fraction = -1.0)",129.959
C:/Users/srbb21/AppData/Local/Temp/rx18_gr30001521653382.841.odb,RELAX,Increment    105: Step Time =    1.000,SHELL-1,1057,-0.249968,-2.75,17.9965,ASSEMBLY_SHELL-1_ALLEL,TI,"shell < TI > < 5 section points > : SNEG, (fraction = -1.0)",130.751
C:/Users/srbb21/AppData/Local/Temp/rx18_gr30001521653382.841.odb,RELAX,Increment    105: Step Time =    1.000,SHELL-1,1057,-0.249968,-2.75,17.9965,ASSEMBLY_SHELL-1_ALLEL,TI,"shell < TI > < 5 section points > : SPOS, (fraction = 1.0)",118.271
C:/Users/srbb21/AppData/Local/Temp/rx18_gr30001521653382.841.odb,RELAX,Increment    105: Step Time =    1.000,SHELL-1,1058,-0.249968,-2.25,17.9965,ASSEMBLY_SHELL-1_ALLEL,TI,"shell < TI > < 5 section points > : SPOS, (fraction = 1.0)",117.446
C:/Users/srbb21/AppData/Local/Temp/rx18_gr30001521653382.841.odb,RELAX,Increment    105: Step Time =    1.000,SHELL-1,1058,-0.249968,-2.25,17.9965,ASSEMBLY_SHELL-1_ALLEL,TI,"shell < TI > < 5 section points > : SNEG, (fraction = -1.0)",131.376
C:/Users/srbb21/AppData/Local/Temp/rx18_gr30001521653382.841.odb,RELAX,Increment    105: Step Time =    1.000,SHELL-1,1059,-0.249968,-1.75,17.9965,ASSEMBLY_SHELL-1_ALLEL,TI,"shell < TI > < 5 section points > : SPOS, (fraction = 1.0)",116.778
C:/Users/srbb21/AppData/Local/Temp/rx18_gr30001521653382.841.odb,RELAX,Increment    105: Step Time =    1.000,SHELL-1,1059,-0.249968,-1.75,17.9965,ASSEMBLY_SHELL-1_ALLEL,TI,"shell < TI > < 5 section points > : SNEG, (fraction = -1.0)",131.853
C:/Users/srbb21/AppData/Local/Temp/rx18_gr30001521653382.841.odb,RELAX,Increment    105: Step Time =    1.000,SHELL-1,1060,-0.249968,-1.25,17.9965,ASSEMBLY_SHELL-1_ALLEL,TI,"shell < TI > < 5 section points > : SPOS, (fraction = 1.0)",116.272
C:/Users/srbb21/AppData/Local/Temp/rx18_gr30001521653382.841.odb,RELAX,Increment    105: Step Time =    1.000,SHELL-1,1060,-0.249968,-1.25,17.9965,ASSEMBLY_SHELL-1_ALLEL,TI,"shell < TI > < 5 section points > : SNEG, (fraction = -1.0)",132.195
C:/Users/srbb21/AppData/Local/Temp/rx18_gr30001521653382.841.odb,RELAX,Increment    105: Step Time =    1.000,SHELL-1,1061,-0.249968,-0.75,17.9965,ASSEMBLY_SHELL-1_ALLEL,TI,"shell < TI > < 5 section points > : SNEG, (fraction = -1.0)",132.416
C:/Users/srbb21/AppData/Local/Temp/rx18_gr30001521653382.841.odb,RELAX,Increment    105: Step Time =    1.000,SHELL-1,1061,-0.249968,-0.75,17.9965,ASSEMBLY_SHELL-1_ALLEL,TI,"shell < TI > < 5 section points > : SPOS, (fraction = 1.0)",115.931
C:/Users/srbb21/AppData/Local/Temp/rx18_gr30001521653382.841.odb,RELAX,Increment    105: Step Time =    1.000,SHELL-1,1062,-0.249968,-0.25,17.9965,ASSEMBLY_SHELL-1_ALLEL,TI,"shell < TI > < 5 section points > : SPOS, (fraction = 1.0)",115.76
C:/Users/srbb21/AppData/Local/Temp/rx18_gr30001521653382.841.odb,RELAX,Increment    105: Step Time =    1.000,SHELL-1,1062,-0.249968,-0.25,17.9965,ASSEMBLY_SHELL-1_ALLEL,TI,"shell < TI > < 5 section points > : SNEG, (fraction = -1.0)",132.525
C:/Users/srbb21/AppData/Local/Temp/rx18_gr30001521653382.841.odb,RELAX,Increment    105: Step Time =    1.000,SHELL-1,1063,-0.249968,0.25,17.9965,ASSEMBLY_SHELL-1_ALLEL,TI,"shell < TI > < 5 section points > : SPOS, (fraction = 1.0)",115.76
C:/Users/srbb21/AppData/Local/Temp/rx18_gr30001521653382.841.odb,RELAX,Increment    105: Step Time =    1.000,SHELL-1,1063,-0.249968,0.25,17.9965,ASSEMBLY_SHELL-1_ALLEL,TI,"shell < TI > < 5 section points > : SNEG, (fraction = -1.0)",132.525
C:/Users/srbb21/AppData/Local/Temp/rx18_gr30001521653382.841.odb,RELAX,Increment    105: Step Time =    1.000,SHELL-1,1064,-0.249968,0.75,17.9965,ASSEMBLY_SHELL-1_ALLEL,TI,"shell < TI > < 5 section points > : SPOS, (fraction = 1.0)",115.931
C:/Users/srbb21/AppData/Local/Temp/rx18_gr30001521653382.841.odb,RELAX,Increment    105: Step Time =    1.000,SHELL-1,1064,-0.249968,0.75,17.9965,ASSEMBLY_SHELL-1_ALLEL,TI,"shell < TI > < 5 section points > : SNEG, (fraction = -1.0)",132.416
C:/Users/srbb21/AppData/Local/Temp/rx18_gr30001521653382.841.odb,RELAX,Increment    105: Step Time =    1.000,SHELL-1,1065,-0.249968,1.25,17.9965,ASSEMBLY_SHELL-1_ALLEL,TI,"shell < TI > < 5 section points > : SNEG, (fraction = -1.0)",132.195
C:/Users/srbb21/AppData/Local/Temp/rx18_gr30001521653382.841.odb,RELAX,Increment    105: Step Time =    1.000,SHELL-1,1065,-0.249968,1.25,17.9965,ASSEMBLY_SHELL-1_ALLEL,TI,"shell < TI > < 5 section points > : SPOS, (fraction = 1.0)",116.272
C:/Users/srbb21/AppData/Local/Temp/rx18_gr30001521653382.841.odb,RELAX,Increment    105: Step Time =    1.000,SHELL-1,1066,-0.249968,1.75,17.9965,ASSEMBLY_SHELL-1_ALLEL,TI,"shell < TI > < 5 section points > : SPOS, (fraction = 1.0)",116.778
C:/Users/srbb21/AppData/Local/Temp/rx18_gr30001521653382.841.odb,RELAX,Increment    105: Step Time =    1.000,SHELL-1,1066,-0.249968,1.75,17.9965,ASSEMBLY_SHELL-1_ALLEL,TI,"shell < TI > < 5 section points > : SNEG, (fraction = -1.0)",131.853
C:/Users/srbb21/AppData/Local/Temp/rx18_gr30001521653382.841.odb,RELAX,Increment    105: Step Time =    1.000,SHELL-1,1067,-0.249968,2.25,17.9965,ASSEMBLY_SHELL-1_ALLEL,TI,"shell < TI > < 5 section points > : SPOS, (fraction = 1.0)",117.446
C:/Users/srbb21/AppData/Local/Temp/rx18_gr30001521653382.841.odb,RELAX,Increment    105: Step Time =    1.000,SHELL-1,1067,-0.249968,2.25,17.9965,ASSEMBLY_SHELL-1_ALLEL,TI,"shell < TI > < 5 section points > : SNEG, (fraction = -1.0)",131.376
C:/Users/srbb21/AppData/Local/Temp/rx18_gr30001521653382.841.odb,RELAX,Increment    105: Step Time =    1.000,SHELL-1,1068,-0.249968,2.75,17.9965,ASSEMBLY_SHELL-1_ALLEL,TI,"shell < TI > < 5 section points > : SPOS, (fraction = 1.0)",118.271
C:/Users/srbb21/AppData/Local/Temp/rx18_gr30001521653382.841.odb,RELAX,Increment    105: Step Time =    1.000,SHELL-1,1068,-0.249968,2.75,17.9965,ASSEMBLY_SHELL-1_ALLEL,TI,"shell < TI > < 5 section points > : SNEG, (fraction = -1.0)",130.751
C:/Users/srbb21/AppData/Local/Temp/rx18_gr30001521653382.841.odb,RELAX,Increment    105: Step Time =    1.000,SHELL-1,1069,-0.249968,3.25,17.9965,ASSEMBLY_SHELL-1_ALLEL,TI,"shell < TI > < 5 section points > : SNEG, (fraction = -1.0)",129.959
C:/Users/srbb21/AppData/Local/Temp/rx18_gr30001521653382.841.odb,RELAX,Increment    105: Step Time =    1.000,SHELL-1,1069,-0.249968,3.25,17.9965,ASSEMBLY_SHELL-1_ALLEL,TI,"shell < TI > < 5 section points > : SPOS, (fraction = 1.0)",119.246
C:/Users/srbb21/AppData/Local/Temp/rx18_gr30001521653382.841.odb,RELAX,Increment    105: Step Time =    1.000,SHELL-1,1070,-0.249968,3.75,17.9965,ASSEMBLY_SHELL-1_ALLEL,TI,"shell < TI > < 5 section points > : SPOS, (fraction = 1.0)",120.368
C:/Users/srbb21/AppData/Local/Temp/rx18_gr30001521653382.841.odb,RELAX,Increment    105: Step Time =    1.000,SHELL-1,1070,-0.249968,3.75,17.9965,ASSEMBLY_SHELL-1_ALLEL,TI,"shell < TI > < 5 section points > : SNEG, (fraction = -1.0)",128.983
C:/Users/srbb21/AppData/Local/Temp/rx18_gr30001521653382.841.odb,RELAX,Increment    105: Step Time =    1.000,SHELL-1,1071,-0.249968,4.25,17.9965,ASSEMBLY_SHELL-1_ALLEL,TI,"shell < TI > < 5 section points > : SPOS, (fraction = 1.0)",121.633
C:/Users/srbb21/AppData/Local/Temp/rx18_gr30001521653382.841.odb,RELAX,Increment    105: Step Time =    1.000,SHELL-1,1071,-0.249968,4.25,17.9965,ASSEMBLY_SHELL-1_ALLEL,TI,"shell < TI > < 5 section points > : SNEG, (fraction = -1.0)",127.806
C:/Users/srbb21/AppData/Local/Temp/rx18_gr30001521653382.841.odb,RELAX,Increment    105: Step Time =    1.000,SHELL-1,1072,-0.249968,4.75,17.9965,ASSEMBLY_SHELL-1_ALLEL,TI,"shell < TI > < 5 section points > : SPOS, (fraction = 1.0)",123.039
C:/Users/srbb21/AppData/Local/Temp/rx18_gr30001521653382.841.odb,RELAX,Increment    105: Step Time =    1.000,SHELL-1,1072,-0.249968,4.75,17.9965,ASSEMBLY_SHELL-1_ALLEL,TI,"shell < TI > < 5 section points > : SNEG, (fraction = -1.0)",126.412
C:/Users/srbb21/AppData/Local/Temp/rx18_gr30001521653382.841.odb,RELAX,Increment    105: Step Time =    1.000,SHELL-1,1073,-0.249968,5.25,17.9965,ASSEMBLY_SHELL-1_ALLEL,TI,"shell < TI > < 5 section points > : SNEG, (fraction = -1.0)",124.788
C:/Users/srbb21/AppData/Local/Temp/rx18_gr30001521653382.841.odb,RELAX,Increment    105: Step Time =    1.000,SHELL-1,1073,-0.249968,5.25,17.9965,ASSEMBLY_SHELL-1_ALLEL,TI,"shell < TI > < 5 section points > : SPOS, (fraction = 1.0)",124.589
C:/Users/srbb21/AppData/Local/Temp/rx18_gr30001521653382.841.odb,RELAX,Increment    105: Step Time =    1.000,SHELL-1,1074,-0.249968,5.75,17.9965,ASSEMBLY_SHELL-1_ALLEL,TI,"shell < TI > < 5 section points > : SPOS, (fraction = 1.0)",126.285
C:/Users/srbb21/AppData/Local/Temp/rx18_gr30001521653382.841.odb,RELAX,Increment    105: Step Time =    1.000,SHELL-1,1074,-0.249968,5.75,17.9965,ASSEMBLY_SHELL-1_ALLEL,TI,"shell < TI > < 5 section points > : SNEG, (fraction = -1.0)",122.927
C:/Users/srbb21/AppData/Local/Temp/rx18_gr30001521653382.841.odb,RELAX,Increment    105: Step Time =    1.000,SHELL-1,1075,-0.249968,6.25,17.9965,ASSEMBLY_SHELL-1_ALLEL,TI,"shell < TI > < 5 section points > : SPOS, (fraction = 1.0)",128.135
C:/Users/srbb21/AppData/Local/Temp/rx18_gr30001521653382.841.odb,RELAX,Increment    105: Step Time =    1.000,SHELL-1,1075,-0.249968,6.25,17.9965,ASSEMBLY_SHELL-1_ALLEL,TI,"shell < TI > < 5 section points > : SNEG, (fraction = -1.0)",120.827
C:/Users/srbb21/AppData/Local/Temp/rx18_gr30001521653382.841.odb,RELAX,Increment    105: Step Time =    1.000,SHELL-1,1076,-0.249968,6.75,17.9965,ASSEMBLY_SHELL-1_ALLEL,TI,"shell < TI > < 5 section points > : SPOS, (fraction = 1.0)",130.148
C:/Users/srbb21/AppData/Local/Temp/rx18_gr30001521653382.841.odb,RELAX,Increment    105: Step Time =    1.000,SHELL-1,1076,-0.249968,6.75,17.9965,ASSEMBLY_SHELL-1_ALLEL,TI,"shell < TI > < 5 section points > : SNEG, (fraction = -1.0)",118.488
C:/Users/srbb21/AppData/Local/Temp/rx18_gr30001521653382.841.odb,RELAX,Increment    105: Step Time =    1.000,SHELL-1,1077,-0.249968,7.25,17.9965,ASSEMBLY_SHELL-1_ALLEL,TI,"shell < TI > < 5 section points > : SNEG, (fraction = -1.0)",115.918
C:/Users/srbb21/AppData/Local/Temp/rx18_gr30001521653382.841.odb,RELAX,Increment    105: Step Time =    1.000,SHELL-1,1077,-0.249968,7.25,17.9965,ASSEMBLY_SHELL-1_ALLEL,TI,"shell < TI > < 5 section points > : SPOS, (fraction = 1.0)",132.332
C:/Users/srbb21/AppData/Local/Temp/rx18_gr30001521653382.841.odb,RELAX,Increment    105: Step Time =    1.000,SHELL-1,1078,-0.249968,7.75,17.9965,ASSEMBLY_SHELL-1_ALLEL,TI,"shell < TI > < 5 section points > : SPOS, (fraction = 1.0)",134.696
C:/Users/srbb21/AppData/Local/Temp/rx18_gr30001521653382.841.odb,RELAX,Increment    105: Step Time =    1.000,SHELL-1,1078,-0.249968,7.75,17.9965,ASSEMBLY_SHELL-1_ALLEL,TI,"shell < TI > < 5 section points > : SNEG, (fraction = -1.0)",113.127
C:/Users/srbb21/AppData/Local/Temp/rx18_gr30001521653382.841.odb,RELAX,Increment    105: Step Time =    1.000,SHELL-1,1079,-0.249968,8.25,17.9965,ASSEMBLY_SHELL-1_ALLEL,TI,"shell < TI > < 5 section points > : SPOS, (fraction = 1.0)",137.243
C:/Users/srbb21/AppData/Local/Temp/rx18_gr30001521653382.841.odb,RELAX,Increment    105: Step Time =    1.000,SHELL-1,1079,-0.249968,8.25,17.9965,ASSEMBLY_SHELL-1_ALLEL,TI,"shell < TI > < 5 section points > : SNEG, (fraction = -1.0)",110.126
C:/Users/srbb21/AppData/Local/Temp/rx18_gr30001521653382.841.odb,RELAX,Increment    105: Step Time =    1.000,SHELL-1,1080,-0.249968,8.75,17.9965,ASSEMBLY_SHELL-1_ALLEL,TI,"shell < TI > < 5 section points > : SPOS, (fraction = 1.0)",139.976
C:/Users/srbb21/AppData/Local/Temp/rx18_gr30001521653382.841.odb,RELAX,Increment    105: Step Time =    1.000,SHELL-1,1080,-0.249968,8.75,17.9965,ASSEMBLY_SHELL-1_ALLEL,TI,"shell < TI > < 5 section points > : SNEG, (fraction = -1.0)",106.938
C:/Users/srbb21/AppData/Local/Temp/rx18_gr30001521653382.841.odb,RELAX,Increment    105: Step Time =    1.000,SHELL-1,1081,0.249968,-8.75,17.9965,ASSEMBLY_SHELL-1_ALLEL,TI,"shell < TI > < 5 section points > : SNEG, (fraction = -1.0)",106.938
C:/Users/srbb21/AppData/Local/Temp/rx18_gr30001521653382.841.odb,RELAX,Increment    105: Step Time =    1.000,SHELL-1,1081,0.249968,-8.75,17.9965,ASSEMBLY_SHELL-1_ALLEL,TI,"shell < TI > < 5 section points > : SPOS, (fraction = 1.0)",139.976
C:/Users/srbb21/AppData/Local/Temp/rx18_gr30001521653382.841.odb,RELAX,Increment    105: Step Time =    1.000,SHELL-1,1082,0.249968,-8.25,17.9965,ASSEMBLY_SHELL-1_ALLEL,TI,"shell < TI > < 5 section points > : SPOS, (fraction = 1.0)",137.243
C:/Users/srbb21/AppData/Local/Temp/rx18_gr30001521653382.841.odb,RELAX,Increment    105: Step Time =    1.000,SHELL-1,1082,0.249968,-8.25,17.9965,ASSEMBLY_SHELL-1_ALLEL,TI,"shell < TI > < 5 section points > : SNEG, (fraction = -1.0)",110.126
C:/Users/srbb21/AppData/Local/Temp/rx18_gr30001521653382.841.odb,RELAX,Increment    105: Step Time =    1.000,SHELL-1,1083,0.249968,-7.75,17.9965,ASSEMBLY_SHELL-1_ALLEL,TI,"shell < TI > < 5 section points > : SPOS, (fraction = 1.0)",134.696
C:/Users/srbb21/AppData/Local/Temp/rx18_gr30001521653382.841.odb,RELAX,Increment    105: Step Time =    1.000,SHELL-1,1083,0.249968,-7.75,17.9965,ASSEMBLY_SHELL-1_ALLEL,TI,"shell < TI > < 5 section points > : SNEG, (fraction = -1.0)",113.127
C:/Users/srbb21/AppData/Local/Temp/rx18_gr30001521653382.841.odb,RELAX,Increment    105: Step Time =    1.000,SHELL-1,1084,0.249968,-7.25,17.9965,ASSEMBLY_SHELL-1_ALLEL,TI,"shell < TI > < 5 section points > : SPOS, (fraction = 1.0)",132.332
C:/Users/srbb21/AppData/Local/Temp/rx18_gr30001521653382.841.odb,RELAX,Increment    105: Step Time =    1.000,SHELL-1,1084,0.249968,-7.25,17.9965,ASSEMBLY_SHELL-1_ALLEL,TI,"shell < TI > < 5 section points > : SNEG, (fraction = -1.0)",115.918
C:/Users/srbb21/AppData/Local/Temp/rx18_gr30001521653382.841.odb,RELAX,Increment    105: Step Time =    1.000,SHELL-1,1085,0.249968,-6.75,17.9965,ASSEMBLY_SHELL-1_ALLEL,TI,"shell < TI > < 5 section points > : SPOS, (fraction = 1.0)",130.148
C:/Users/srbb21/AppData/Local/Temp/rx18_gr30001521653382.841.odb,RELAX,Increment    105: Step Time =    1.000,SHELL-1,1085,0.249968,-6.75,17.9965,ASSEMBLY_SHELL-1_ALLEL,TI,"shell < TI > < 5 section points > : SNEG, (fraction = -1.0)",118.488
C:/Users/srbb21/AppData/Local/Temp/rx18_gr30001521653382.841.odb,RELAX,Increment    105: Step Time =    1.000,SHELL-1,1086,0.249968,-6.25,17.9965,ASSEMBLY_SHELL-1_ALLEL,TI,"shell < TI > < 5 section points > : SNEG, (fraction = -1.0)",120.827
C:/Users/srbb21/AppData/Local/Temp/rx18_gr30001521653382.841.odb,RELAX,Increment    105: Step Time =    1.000,SHELL-1,1086,0.249968,-6.25,17.9965,ASSEMBLY_SHELL-1_ALLEL,TI,"shell < TI > < 5 section points > : SPOS, (fraction = 1.0)",128.135
C:/Users/srbb21/AppData/Local/Temp/rx18_gr30001521653382.841.odb,RELAX,Increment    105: Step Time =    1.000,SHELL-1,1087,0.249968,-5.75,17.9965,ASSEMBLY_SHELL-1_ALLEL,TI,"shell < TI > < 5 section points > : SPOS, (fraction = 1.0)",126.285
C:/Users/srbb21/AppData/Local/Temp/rx18_gr30001521653382.841.odb,RELAX,Increment    105: Step Time =    1.000,SHELL-1,1087,0.249968,-5.75,17.9965,ASSEMBLY_SHELL-1_ALLEL,TI,"shell < TI > < 5 section points > : SNEG, (fraction = -1.0)",122.927
C:/Users/srbb21/AppData/Local/Temp/rx18_gr30001521653382.841.odb,RELAX,Increment    105: Step Time =    1.000,SHELL-1,1088,0.249968,-5.25,17.9965,ASSEMBLY_SHELL-1_ALLEL,TI,"shell < TI > < 5 section points > : SPOS, (fraction = 1.0)",124.589
C:/Users/srbb21/AppData/Local/Temp/rx18_gr30001521653382.841.odb,RELAX,Increment    105: Step Time =    1.000,SHELL-1,1088,0.249968,-5.25,17.9965,ASSEMBLY_SHELL-1_ALLEL,TI,"shell < TI > < 5 section points > : SNEG, (fraction = -1.0)",124.788
C:/Users/srbb21/AppData/Local/Temp/rx18_gr30001521653382.841.odb,RELAX,Increment    105: Step Time =    1.000,SHELL-1,1089,0.249968,-4.75,17.9965,ASSEMBLY_SHELL-1_ALLEL,TI,"shell < TI > < 5 section points > : SPOS, (fraction = 1.0)",123.039
C:/Users/srbb21/AppData/Local/Temp/rx18_gr30001521653382.841.odb,RELAX,Increment    105: Step Time =    1.000,SHELL-1,1089,0.249968,-4.75,17.9965,ASSEMBLY_SHELL-1_ALLEL,TI,"shell < TI > < 5 section points > : SNEG, (fraction = -1.0)",126.412
C:/Users/srbb21/AppData/Local/Temp/rx18_gr30001521653382.841.odb,RELAX,Increment    105: Step Time =    1.000,SHELL-1,1090,0.249968,-4.25,17.9965,ASSEMBLY_SHELL-1_ALLEL,TI,"shell < TI > < 5 section points > : SNEG, (fraction = -1.0)",127.806
C:/Users/srbb21/AppData/Local/Temp/rx18_gr30001521653382.841.odb,RELAX,Increment    105: Step Time =    1.000,SHELL-1,1090,0.249968,-4.25,17.9965,ASSEMBLY_SHELL-1_ALLEL,TI,"shell < TI > < 5 section points > : SPOS, (fraction = 1.0)",121.633
C:/Users/srbb21/AppData/Local/Temp/rx18_gr30001521653382.841.odb,RELAX,Increment    105: Step Time =    1.000,SHELL-1,1091,0.249968,-3.75,17.9965,ASSEMBLY_SHELL-1_ALLEL,TI,"shell < TI > < 5 section points > : SPOS, (fraction = 1.0)",120.368
C:/Users/srbb21/AppData/Local/Temp/rx18_gr30001521653382.841.odb,RELAX,Increment    105: Step Time =    1.000,SHELL-1,1091,0.249968,-3.75,17.9965,ASSEMBLY_SHELL-1_ALLEL,TI,"shell < TI > < 5 section points > : SNEG, (fraction = -1.0)",128.983
C:/Users/srbb21/AppData/Local/Temp/rx18_gr30001521653382.841.odb,RELAX,Increment    105: Step Time =    1.000,SHELL-1,1092,0.249968,-3.25,17.9965,ASSEMBLY_SHELL-1_ALLEL,TI,"shell < TI > < 5 section points > : SPOS, (fraction = 1.0)",119.246
C:/Users/srbb21/AppData/Local/Temp/rx18_gr30001521653382.841.odb,RELAX,Increment    105: Step Time =    1.000,SHELL-1,1092,0.249968,-3.25,17.9965,ASSEMBLY_SHELL-1_ALLEL,TI,"shell < TI > < 5 section points > : SNEG, (fraction = -1.0)",129.959
C:/Users/srbb21/AppData/Local/Temp/rx18_gr30001521653382.841.odb,RELAX,Increment    105: Step Time =    1.000,SHELL-1,1093,0.249968,-2.75,17.9965,ASSEMBLY_SHELL-1_ALLEL,TI,"shell < TI > < 5 section points > : SPOS, (fraction = 1.0)",118.271
C:/Users/srbb21/AppData/Local/Temp/rx18_gr30001521653382.841.odb,RELAX,Increment    105: Step Time =    1.000,SHELL-1,1093,0.249968,-2.75,17.9965,ASSEMBLY_SHELL-1_ALLEL,TI,"shell < TI > < 5 section points > : SNEG, (fraction = -1.0)",130.751
C:/Users/srbb21/AppData/Local/Temp/rx18_gr30001521653382.841.odb,RELAX,Increment    105: Step Time =    1.000,SHELL-1,1094,0.249968,-2.25,17.9965,ASSEMBLY_SHELL-1_ALLEL,TI,"shell < TI > < 5 section points > : SNEG, (fraction = -1.0)",131.376
C:/Users/srbb21/AppData/Local/Temp/rx18_gr30001521653382.841.odb,RELAX,Increment    105: Step Time =    1.000,SHELL-1,1094,0.249968,-2.25,17.9965,ASSEMBLY_SHELL-1_ALLEL,TI,"shell < TI > < 5 section points > : SPOS, (fraction = 1.0)",117.446
C:/Users/srbb21/AppData/Local/Temp/rx18_gr30001521653382.841.odb,RELAX,Increment    105: Step Time =    1.000,SHELL-1,1095,0.249968,-1.75,17.9965,ASSEMBLY_SHELL-1_ALLEL,TI,"shell < TI > < 5 section points > : SPOS, (fraction = 1.0)",116.778
C:/Users/srbb21/AppData/Local/Temp/rx18_gr30001521653382.841.odb,RELAX,Increment    105: Step Time =    1.000,SHELL-1,1095,0.249968,-1.75,17.9965,ASSEMBLY_SHELL-1_ALLEL,TI,"shell < TI > < 5 section points > : SNEG, (fraction = -1.0)",131.853
C:/Users/srbb21/AppData/Local/Temp/rx18_gr30001521653382.841.odb,RELAX,Increment    105: Step Time =    1.000,SHELL-1,1096,0.249968,-1.25,17.9965,ASSEMBLY_SHELL-1_ALLEL,TI,"shell < TI > < 5 section points > : SPOS, (fraction = 1.0)",116.272
C:/Users/srbb21/AppData/Local/Temp/rx18_gr30001521653382.841.odb,RELAX,Increment    105: Step Time =    1.000,SHELL-1,1096,0.249968,-1.25,17.9965,ASSEMBLY_SHELL-1_ALLEL,TI,"shell < TI > < 5 section points > : SNEG, (fraction = -1.0)",132.195
C:/Users/srbb21/AppData/Local/Temp/rx18_gr30001521653382.841.odb,RELAX,Increment    105: Step Time =    1.000,SHELL-1,1097,0.249968,-0.75,17.9965,ASSEMBLY_SHELL-1_ALLEL,TI,"shell < TI > < 5 section points > : SPOS, (fraction = 1.0)",115.931
C:/Users/srbb21/AppData/Local/Temp/rx18_gr30001521653382.841.odb,RELAX,Increment    105: Step Time =    1.000,SHELL-1,1097,0.249968,-0.75,17.9965,ASSEMBLY_SHELL-1_ALLEL,TI,"shell < TI > < 5 section points > : SNEG, (fraction = -1.0)",132.416
C:/Users/srbb21/AppData/Local/Temp/rx18_gr30001521653382.841.odb,RELAX,Increment    105: Step Time =    1.000,SHELL-1,1098,0.249968,-0.25,17.9965,ASSEMBLY_SHELL-1_ALLEL,TI,"shell < TI > < 5 section points > : SNEG, (fraction = -1.0)",132.525
C:/Users/srbb21/AppData/Local/Temp/rx18_gr30001521653382.841.odb,RELAX,Increment    105: Step Time =    1.000,SHELL-1,1098,0.249968,-0.25,17.9965,ASSEMBLY_SHELL-1_ALLEL,TI,"shell < TI > < 5 section points > : SPOS, (fraction = 1.0)",115.76
C:/Users/srbb21/AppData/Local/Temp/rx18_gr30001521653382.841.odb,RELAX,Increment    105: Step Time =    1.000,SHELL-1,1099,0.249968,0.25,17.9965,ASSEMBLY_SHELL-1_ALLEL,TI,"shell < TI > < 5 section points > : SPOS, (fraction = 1.0)",115.76
C:/Users/srbb21/AppData/Local/Temp/rx18_gr30001521653382.841.odb,RELAX,Increment    105: Step Time =    1.000,SHELL-1,1099,0.249968,0.25,17.9965,ASSEMBLY_SHELL-1_ALLEL,TI,"shell < TI > < 5 section points > : SNEG, (fraction = -1.0)",132.525
C:/Users/srbb21/AppData/Local/Temp/rx18_gr30001521653382.841.odb,RELAX,Increment    105: Step Time =    1.000,SHELL-1,1100,0.249968,0.75,17.9965,ASSEMBLY_SHELL-1_ALLEL,TI,"shell < TI > < 5 section points > : SPOS, (fraction = 1.0)",115.931
C:/Users/srbb21/AppData/Local/Temp/rx18_gr30001521653382.841.odb,RELAX,Increment    105: Step Time =    1.000,SHELL-1,1100,0.249968,0.75,17.9965,ASSEMBLY_SHELL-1_ALLEL,TI,"shell < TI > < 5 section points > : SNEG, (fraction = -1.0)",132.416
C:/Users/srbb21/AppData/Local/Temp/rx18_gr30001521653382.841.odb,RELAX,Increment    105: Step Time =    1.000,SHELL-1,1101,0.249968,1.25,17.9965,ASSEMBLY_SHELL-1_ALLEL,TI,"shell < TI > < 5 section points > : SPOS, (fraction = 1.0)",116.272
C:/Users/srbb21/AppData/Local/Temp/rx18_gr30001521653382.841.odb,RELAX,Increment    105: Step Time =    1.000,SHELL-1,1101,0.249968,1.25,17.9965,ASSEMBLY_SHELL-1_ALLEL,TI,"shell < TI > < 5 section points > : SNEG, (fraction = -1.0)",132.195
C:/Users/srbb21/AppData/Local/Temp/rx18_gr30001521653382.841.odb,RELAX,Increment    105: Step Time =    1.000,SHELL-1,1102,0.249968,1.75,17.9965,ASSEMBLY_SHELL-1_ALLEL,TI,"shell < TI > < 5 section points > : SPOS, (fraction = 1.0)",116.778
C:/Users/srbb21/AppData/Local/Temp/rx18_gr30001521653382.841.odb,RELAX,Increment    105: Step Time =    1.000,SHELL-1,1102,0.249968,1.75,17.9965,ASSEMBLY_SHELL-1_ALLEL,TI,"shell < TI > < 5 section points > : SNEG, (fraction = -1.0)",131.853
C:/Users/srbb21/AppData/Local/Temp/rx18_gr30001521653382.841.odb,RELAX,Increment    105: Step Time =    1.000,SHELL-1,1103,0.249968,2.25,17.9965,ASSEMBLY_SHELL-1_ALLEL,TI,"shell < TI > < 5 section points > : SNEG, (fraction = -1.0)",131.376
C:/Users/srbb21/AppData/Local/Temp/rx18_gr30001521653382.841.odb,RELAX,Increment    105: Step Time =    1.000,SHELL-1,1103,0.249968,2.25,17.9965,ASSEMBLY_SHELL-1_ALLEL,TI,"shell < TI > < 5 section points > : SPOS, (fraction = 1.0)",117.446
C:/Users/srbb21/AppData/Local/Temp/rx18_gr30001521653382.841.odb,RELAX,Increment    105: Step Time =    1.000,SHELL-1,1104,0.249968,2.75,17.9965,ASSEMBLY_SHELL-1_ALLEL,TI,"shell < TI > < 5 section points > : SPOS, (fraction = 1.0)",118.271
C:/Users/srbb21/AppData/Local/Temp/rx18_gr30001521653382.841.odb,RELAX,Increment    105: Step Time =    1.000,SHELL-1,1104,0.249968,2.75,17.9965,ASSEMBLY_SHELL-1_ALLEL,TI,"shell < TI > < 5 section points > : SNEG, (fraction = -1.0)",130.751
C:/Users/srbb21/AppData/Local/Temp/rx18_gr30001521653382.841.odb,RELAX,Increment    105: Step Time =    1.000,SHELL-1,1105,0.249968,3.25,17.9965,ASSEMBLY_SHELL-1_ALLEL,TI,"shell < TI > < 5 section points > : SPOS, (fraction = 1.0)",119.246
C:/Users/srbb21/AppData/Local/Temp/rx18_gr30001521653382.841.odb,RELAX,Increment    105: Step Time =    1.000,SHELL-1,1105,0.249968,3.25,17.9965,ASSEMBLY_SHELL-1_ALLEL,TI,"shell < TI > < 5 section points > : SNEG, (fraction = -1.0)",129.959
C:/Users/srbb21/AppData/Local/Temp/rx18_gr30001521653382.841.odb,RELAX,Increment    105: Step Time =    1.000,SHELL-1,1106,0.249968,3.75,17.9965,ASSEMBLY_SHELL-1_ALLEL,TI,"shell < TI > < 5 section points > : SPOS, (fraction = 1.0)",120.368
C:/Users/srbb21/AppData/Local/Temp/rx18_gr30001521653382.841.odb,RELAX,Increment    105: Step Time =    1.000,SHELL-1,1106,0.249968,3.75,17.9965,ASSEMBLY_SHELL-1_ALLEL,TI,"shell < TI > < 5 section points > : SNEG, (fraction = -1.0)",128.983
C:/Users/srbb21/AppData/Local/Temp/rx18_gr30001521653382.841.odb,RELAX,Increment    105: Step Time =    1.000,SHELL-1,1107,0.249968,4.25,17.9965,ASSEMBLY_SHELL-1_ALLEL,TI,"shell < TI > < 5 section points > : SNEG, (fraction = -1.0)",127.806
C:/Users/srbb21/AppData/Local/Temp/rx18_gr30001521653382.841.odb,RELAX,Increment    105: Step Time =    1.000,SHELL-1,1107,0.249968,4.25,17.9965,ASSEMBLY_SHELL-1_ALLEL,TI,"shell < TI > < 5 section points > : SPOS, (fraction = 1.0)",121.633
C:/Users/srbb21/AppData/Local/Temp/rx18_gr30001521653382.841.odb,RELAX,Increment    105: Step Time =    1.000,SHELL-1,1108,0.249968,4.75,17.9965,ASSEMBLY_SHELL-1_ALLEL,TI,"shell < TI > < 5 section points > : SPOS, (fraction = 1.0)",123.039
C:/Users/srbb21/AppData/Local/Temp/rx18_gr30001521653382.841.odb,RELAX,Increment    105: Step Time =    1.000,SHELL-1,1108,0.249968,4.75,17.9965,ASSEMBLY_SHELL-1_ALLEL,TI,"shell < TI > < 5 section points > : SNEG, (fraction = -1.0)",126.412
C:/Users/srbb21/AppData/Local/Temp/rx18_gr30001521653382.841.odb,RELAX,Increment    105: Step Time =    1.000,SHELL-1,1109,0.249968,5.25,17.9965,ASSEMBLY_SHELL-1_ALLEL,TI,"shell < TI > < 5 section points > : SPOS, (fraction = 1.0)",124.589
C:/Users/srbb21/AppData/Local/Temp/rx18_gr30001521653382.841.odb,RELAX,Increment    105: Step Time =    1.000,SHELL-1,1109,0.249968,5.25,17.9965,ASSEMBLY_SHELL-1_ALLEL,TI,"shell < TI > < 5 section points > : SNEG, (fraction = -1.0)",124.788
C:/Users/srbb21/AppData/Local/Temp/rx18_gr30001521653382.841.odb,RELAX,Increment    105: Step Time =    1.000,SHELL-1,1110,0.249968,5.75,17.9965,ASSEMBLY_SHELL-1_ALLEL,TI,"shell < TI > < 5 section points > : SPOS, (fraction = 1.0)",126.285
C:/Users/srbb21/AppData/Local/Temp/rx18_gr30001521653382.841.odb,RELAX,Increment    105: Step Time =    1.000,SHELL-1,1110,0.249968,5.75,17.9965,ASSEMBLY_SHELL-1_ALLEL,TI,"shell < TI > < 5 section points > : SNEG, (fraction = -1.0)",122.927
C:/Users/srbb21/AppData/Local/Temp/rx18_gr30001521653382.841.odb,RELAX,Increment    105: Step Time =    1.000,SHELL-1,1111,0.249968,6.25,17.9965,ASSEMBLY_SHELL-1_ALLEL,TI,"shell < TI > < 5 section points > : SNEG, (fraction = -1.0)",120.827
C:/Users/srbb21/AppData/Local/Temp/rx18_gr30001521653382.841.odb,RELAX,Increment    105: Step Time =    1.000,SHELL-1,1111,0.249968,6.25,17.9965,ASSEMBLY_SHELL-1_ALLEL,TI,"shell < TI > < 5 section points > : SPOS, (fraction = 1.0)",128.135
C:/Users/srbb21/AppData/Local/Temp/rx18_gr30001521653382.841.odb,RELAX,Increment    105: Step Time =    1.000,SHELL-1,1112,0.249968,6.75,17.9965,ASSEMBLY_SHELL-1_ALLEL,TI,"shell < TI > < 5 section points > : SPOS, (fraction = 1.0)",130.148
C:/Users/srbb21/AppData/Local/Temp/rx18_gr30001521653382.841.odb,RELAX,Increment    105: Step Time =    1.000,SHELL-1,1112,0.249968,6.75,17.9965,ASSEMBLY_SHELL-1_ALLEL,TI,"shell < TI > < 5 section points > : SNEG, (fraction = -1.0)",118.488
C:/Users/srbb21/AppData/Local/Temp/rx18_gr30001521653382.841.odb,RELAX,Increment    105: Step Time =    1.000,SHELL-1,1113,0.249968,7.25,17.9965,ASSEMBLY_SHELL-1_ALLEL,TI,"shell < TI > < 5 section points > : SPOS, (fraction = 1.0)",132.332
C:/Users/srbb21/AppData/Local/Temp/rx18_gr30001521653382.841.odb,RELAX,Increment    105: Step Time =    1.000,SHELL-1,1113,0.249968,7.25,17.9965,ASSEMBLY_SHELL-1_ALLEL,TI,"shell < TI > < 5 section points > : SNEG, (fraction = -1.0)",115.918
C:/Users/srbb21/AppData/Local/Temp/rx18_gr30001521653382.841.odb,RELAX,Increment    105: Step Time =    1.000,SHELL-1,1114,0.249968,7.75,17.9965,ASSEMBLY_SHELL-1_ALLEL,TI,"shell < TI > < 5 section points > : SPOS, (fraction = 1.0)",134.696
C:/Users/srbb21/AppData/Local/Temp/rx18_gr30001521653382.841.odb,RELAX,Increment    105: Step Time =    1.000,SHELL-1,1114,0.249968,7.75,17.9965,ASSEMBLY_SHELL-1_ALLEL,TI,"shell < TI > < 5 section points > : SNEG, (fraction = -1.0)",113.127
C:/Users/srbb21/AppData/Local/Temp/rx18_gr30001521653382.841.odb,RELAX,Increment    105: Step Time =    1.000,SHELL-1,1115,0.249968,8.25,17.9965,ASSEMBLY_SHELL-1_ALLEL,TI,"shell < TI > < 5 section points > : SNEG, (fraction = -1.0)",110.126
C:/Users/srbb21/AppData/Local/Temp/rx18_gr30001521653382.841.odb,RELAX,Increment    105: Step Time =    1.000,SHELL-1,1115,0.249968,8.25,17.9965,ASSEMBLY_SHELL-1_ALLEL,TI,"shell < TI > < 5 section points > : SPOS, (fraction = 1.0)",137.243
C:/Users/srbb21/AppData/Local/Temp/rx18_gr30001521653382.841.odb,RELAX,Increment    105: Step Time =    1.000,SHELL-1,1116,0.249968,8.75,17.9965,ASSEMBLY_SHELL-1_ALLEL,TI,"shell < TI > < 5 section points > : SPOS, (fraction = 1.0)",139.976
C:/Users/srbb21/AppData/Local/Temp/rx18_gr30001521653382.841.odb,RELAX,Increment    105: Step Time =    1.000,SHELL-1,1116,0.249968,8.75,17.9965,ASSEMBLY_SHELL-1_ALLEL,TI,"shell < TI > < 5 section points > : SNEG, (fraction = -1.0)",106.938
C:/Users/srbb21/AppData/Local/Temp/rx18_gr30001521653382.841.odb,RELAX,Increment    105: Step Time =    1.000,SHELL-1,1117,0.749711,-8.75,17.9826,ASSEMBLY_SHELL-1_ALLEL,TI,"shell < TI > < 5 section points > : SPOS, (fraction = 1.0)",139.974
C:/Users/srbb21/AppData/Local/Temp/rx18_gr30001521653382.841.odb,RELAX,Increment    105: Step Time =    1.000,SHELL-1,1117,0.749711,-8.75,17.9826,ASSEMBLY_SHELL-1_ALLEL,TI,"shell < TI > < 5 section points > : SNEG, (fraction = -1.0)",106.888
C:/Users/srbb21/AppData/Local/Temp/rx18_gr30001521653382.841.odb,RELAX,Increment    105: Step Time =    1.000,SHELL-1,1118,0.749711,-8.25,17.9826,ASSEMBLY_SHELL-1_ALLEL,TI,"shell < TI > < 5 section points > : SPOS, (fraction = 1.0)",137.232
C:/Users/srbb21/AppData/Local/Temp/rx18_gr30001521653382.841.odb,RELAX,Increment    105: Step Time =    1.000,SHELL-1,1118,0.749711,-8.25,17.9826,ASSEMBLY_SHELL-1_ALLEL,TI,"shell < TI > < 5 section points > : SNEG, (fraction = -1.0)",110.091
C:/Users/srbb21/AppData/Local/Temp/rx18_gr30001521653382.841.odb,RELAX,Increment    105: Step Time =    1.000,SHELL-1,1119,0.749711,-7.75,17.9826,ASSEMBLY_SHELL-1_ALLEL,TI,"shell < TI > < 5 section points > : SPOS, (fraction = 1.0)",134.678
C:/Users/srbb21/AppData/Local/Temp/rx18_gr30001521653382.841.odb,RELAX,Increment    105: Step Time =    1.000,SHELL-1,1119,0.749711,-7.75,17.9826,ASSEMBLY_SHELL-1_ALLEL,TI,"shell < TI > < 5 section points > : SNEG, (fraction = -1.0)",113.105
C:/Users/srbb21/AppData/Local/Temp/rx18_gr30001521653382.841.odb,RELAX,Increment    105: Step Time =    1.000,SHELL-1,1120,0.749711,-7.25,17.9826,ASSEMBLY_SHELL-1_ALLEL,TI,"shell < TI > < 5 section points > : SNEG, (fraction = -1.0)",115.907
C:/Users/srbb21/AppData/Local/Temp/rx18_gr30001521653382.841.odb,RELAX,Increment    105: Step Time =    1.000,SHELL-1,1120,0.749711,-7.25,17.9826,ASSEMBLY_SHELL-1_ALLEL,TI,"shell < TI > < 5 section points > : SPOS, (fraction = 1.0)",132.309
C:/Users/srbb21/AppData/Local/Temp/rx18_gr30001521653382.841.odb,RELAX,Increment    105: Step Time =    1.000,SHELL-1,1121,0.749711,-6.75,17.9826,ASSEMBLY_SHELL-1_ALLEL,TI,"shell < TI > < 5 section points > : SPOS, (fraction = 1.0)",130.121
C:/Users/srbb21/AppData/Local/Temp/rx18_gr30001521653382.841.odb,RELAX,Increment    105: Step Time =    1.000,SHELL-1,1121,0.749711,-6.75,17.9826,ASSEMBLY_SHELL-1_ALLEL,TI,"shell < TI > < 5 section points > : SNEG, (fraction = -1.0)",118.487
C:/Users/srbb21/AppData/Local/Temp/rx18_gr30001521653382.841.odb,RELAX,Increment    105: Step Time =    1.000,SHELL-1,1122,0.749711,-6.25,17.9826,ASSEMBLY_SHELL-1_ALLEL,TI,"shell < TI > < 5 section points > : SPOS, (fraction = 1.0)",128.105
C:/Users/srbb21/AppData/Local/Temp/rx18_gr30001521653382.841.odb,RELAX,Increment    105: Step Time =    1.000,SHELL-1,1122,0.749711,-6.25,17.9826,ASSEMBLY_SHELL-1_ALLEL,TI,"shell < TI > < 5 section points > : SNEG, (fraction = -1.0)",120.833
C:/Users/srbb21/AppData/Local/Temp/rx18_gr30001521653382.841.odb,RELAX,Increment    105: Step Time =    1.000,SHELL-1,1123,0.749711,-5.75,17.9826,ASSEMBLY_SHELL-1_ALLEL,TI,"shell < TI > < 5 section points > : SPOS, (fraction = 1.0)",126.255
C:/Users/srbb21/AppData/Local/Temp/rx18_gr30001521653382.841.odb,RELAX,Increment    105: Step Time =    1.000,SHELL-1,1123,0.749711,-5.75,17.9826,ASSEMBLY_SHELL-1_ALLEL,TI,"shell < TI > < 5 section points > : SNEG, (fraction = -1.0)",122.938
C:/Users/srbb21/AppData/Local/Temp/rx18_gr30001521653382.841.odb,RELAX,Increment    105: Step Time =    1.000,SHELL-1,1124,0.749711,-5.25,17.9826,ASSEMBLY_SHELL-1_ALLEL,TI,"shell < TI > < 5 section points > : SNEG, (fraction = -1.0)",124.8
C:/Users/srbb21/AppData/Local/Temp/rx18_gr30001521653382.841.odb,RELAX,Increment    105: Step Time =    1.000,SHELL-1,1124,0.749711,-5.25,17.9826,ASSEMBLY_SHELL-1_ALLEL,TI,"shell < TI > < 5 section points > : SPOS, (fraction = 1.0)",124.559
C:/Users/srbb21/AppData/Local/Temp/rx18_gr30001521653382.841.odb,RELAX,Increment    105: Step Time =    1.000,SHELL-1,1125,0.749711,-4.75,17.9826,ASSEMBLY_SHELL-1_ALLEL,TI,"shell < TI > < 5 section points > : SPOS, (fraction = 1.0)",123.012
C:/Users/srbb21/AppData/Local/Temp/rx18_gr30001521653382.841.odb,RELAX,Increment    105: Step Time =    1.000,SHELL-1,1125,0.749711,-4.75,17.9826,ASSEMBLY_SHELL-1_ALLEL,TI,"shell < TI > < 5 section points > : SNEG, (fraction = -1.0)",126.423
C:/Users/srbb21/AppData/Local/Temp/rx18_gr30001521653382.841.odb,RELAX,Increment    105: Step Time =    1.000,SHELL-1,1126,0.749711,-4.25,17.9826,ASSEMBLY_SHELL-1_ALLEL,TI,"shell < TI > < 5 section points > : SPOS, (fraction = 1.0)",121.609
C:/Users/srbb21/AppData/Local/Temp/rx18_gr30001521653382.841.odb,RELAX,Increment    105: Step Time =    1.000,SHELL-1,1126,0.749711,-4.25,17.9826,ASSEMBLY_SHELL-1_ALLEL,TI,"shell < TI > < 5 section points > : SNEG, (fraction = -1.0)",127.814
C:/Users/srbb21/AppData/Local/Temp/rx18_gr30001521653382.841.odb,RELAX,Increment    105: Step Time =    1.000,SHELL-1,1127,0.749711,-3.75,17.9826,ASSEMBLY_SHELL-1_ALLEL,TI,"shell < TI > < 5 section points > : SPOS, (fraction = 1.0)",120.35
C:/Users/srbb21/AppData/Local/Temp/rx18_gr30001521653382.841.odb,RELAX,Increment    105: Step Time =    1.000,SHELL-1,1127,0.749711,-3.75,17.9826,ASSEMBLY_SHELL-1_ALLEL,TI,"shell < TI > < 5 section points > : SNEG, (fraction = -1.0)",128.987
C:/Users/srbb21/AppData/Local/Temp/rx18_gr30001521653382.841.odb,RELAX,Increment    105: Step Time =    1.000,SHELL-1,1128,0.749711,-3.25,17.9826,ASSEMBLY_SHELL-1_ALLEL,TI,"shell < TI > < 5 section points > : SNEG, (fraction = -1.0)",129.957
C:/Users/srbb21/AppData/Local/Temp/rx18_gr30001521653382.841.odb,RELAX,Increment    105: Step Time =    1.000,SHELL-1,1128,0.749711,-3.25,17.9826,ASSEMBLY_SHELL-1_ALLEL,TI,"shell < TI > < 5 section points > : SPOS, (fraction = 1.0)",119.233
C:/Users/srbb21/AppData/Local/Temp/rx18_gr30001521653382.841.odb,RELAX,Increment    105: Step Time =    1.000,SHELL-1,1129,0.749711,-2.75,17.9826,ASSEMBLY_SHELL-1_ALLEL,TI,"shell < TI > < 5 section points > : SPOS, (fraction = 1.0)",118.264
C:/Users/srbb21/AppData/Local/Temp/rx18_gr30001521653382.841.odb,RELAX,Increment    105: Step Time =    1.000,SHELL-1,1129,0.749711,-2.75,17.9826,ASSEMBLY_SHELL-1_ALLEL,TI,"shell < TI > < 5 section points > : SNEG, (fraction = -1.0)",130.742
C:/Users/srbb21/AppData/Local/Temp/rx18_gr30001521653382.841.odb,RELAX,Increment    105: Step Time =    1.000,SHELL-1,1130,0.749711,-2.25,17.9826,ASSEMBLY_SHELL-1_ALLEL,TI,"shell < TI > < 5 section points > : SPOS, (fraction = 1.0)",117.446
C:/Users/srbb21/AppData/Local/Temp/rx18_gr30001521653382.841.odb,RELAX,Increment    105: Step Time =    1.000,SHELL-1,1130,0.749711,-2.25,17.9826,ASSEMBLY_SHELL-1_ALLEL,TI,"shell < TI > < 5 section points > : SNEG, (fraction = -1.0)",131.361
C:/Users/srbb21/AppData/Local/Temp/rx18_gr30001521653382.841.odb,RELAX,Increment    105: Step Time =    1.000,SHELL-1,1131,0.749711,-1.75,17.9826,ASSEMBLY_SHELL-1_ALLEL,TI,"shell < TI > < 5 section points > : SPOS, (fraction = 1.0)",116.784
C:/Users/srbb21/AppData/Local/Temp/rx18_gr30001521653382.841.odb,RELAX,Increment    105: Step Time =    1.000,SHELL-1,1131,0.749711,-1.75,17.9826,ASSEMBLY_SHELL-1_ALLEL,TI,"shell < TI > < 5 section points > : SNEG, (fraction = -1.0)",131.831
C:/Users/srbb21/AppData/Local/Temp/rx18_gr30001521653382.841.odb,RELAX,Increment    105: Step Time =    1.000,SHELL-1,1132,0.749711,-1.25,17.9826,ASSEMBLY_SHELL-1_ALLEL,TI,"shell < TI > < 5 section points > : SNEG, (fraction = -1.0)",132.169
C:/Users/srbb21/AppData/Local/Temp/rx18_gr30001521653382.841.odb,RELAX,Increment    105: Step Time =    1.000,SHELL-1,1132,0.749711,-1.25,17.9826,ASSEMBLY_SHELL-1_ALLEL,TI,"shell < TI > < 5 section points > : SPOS, (fraction = 1.0)",116.282
C:/Users/srbb21/AppData/Local/Temp/rx18_gr30001521653382.841.odb,RELAX,Increment    105: Step Time =    1.000,SHELL-1,1133,0.749711,-0.75,17.9826,ASSEMBLY_SHELL-1_ALLEL,TI,"shell < TI > < 5 section points > : SPOS, (fraction = 1.0)",115.947
C:/Users/srbb21/AppData/Local/Temp/rx18_gr30001521653382.841.odb,RELAX,Increment    105: Step Time =    1.000,SHELL-1,1133,0.749711,-0.75,17.9826,ASSEMBLY_SHELL-1_ALLEL,TI,"shell < TI > < 5 section points > : SNEG, (fraction = -1.0)",132.388
C:/Users/srbb21/AppData/Local/Temp/rx18_gr30001521653382.841.odb,RELAX,Increment    105: Step Time =    1.000,SHELL-1,1134,0.749711,-0.25,17.9826,ASSEMBLY_SHELL-1_ALLEL,TI,"shell < TI > < 5 section points > : SPOS, (fraction = 1.0)",115.776
C:/Users/srbb21/AppData/Local/Temp/rx18_gr30001521653382.841.odb,RELAX,Increment    105: Step Time =    1.000,SHELL-1,1134,0.749711,-0.25,17.9826,ASSEMBLY_SHELL-1_ALLEL,TI,"shell < TI > < 5 section points > : SNEG, (fraction = -1.0)",132.493
C:/Users/srbb21/AppData/Local/Temp/rx18_gr30001521653382.841.odb,RELAX,Increment    105: Step Time =    1.000,SHELL-1,1135,0.749711,0.25,17.9826,ASSEMBLY_SHELL-1_ALLEL,TI,"shell < TI > < 5 section points > : SPOS, (fraction = 1.0)",115.776
C:/Users/srbb21/AppData/Local/Temp/rx18_gr30001521653382.841.odb,RELAX,Increment    105: Step Time =    1.000,SHELL-1,1135,0.749711,0.25,17.9826,ASSEMBLY_SHELL-1_ALLEL,TI,"shell < TI > < 5 section points > : SNEG, (fraction = -1.0)",132.493
C:/Users/srbb21/AppData/Local/Temp/rx18_gr30001521653382.841.odb,RELAX,Increment    105: Step Time =    1.000,SHELL-1,1136,0.749711,0.75,17.9826,ASSEMBLY_SHELL-1_ALLEL,TI,"shell < TI > < 5 section points > : SPOS, (fraction = 1.0)",115.947
C:/Users/srbb21/AppData/Local/Temp/rx18_gr30001521653382.841.odb,RELAX,Increment    105: Step Time =    1.000,SHELL-1,1136,0.749711,0.75,17.9826,ASSEMBLY_SHELL-1_ALLEL,TI,"shell < TI > < 5 section points > : SNEG, (fraction = -1.0)",132.388
C:/Users/srbb21/AppData/Local/Temp/rx18_gr30001521653382.841.odb,RELAX,Increment    105: Step Time =    1.000,SHELL-1,1137,0.749711,1.25,17.9826,ASSEMBLY_SHELL-1_ALLEL,TI,"shell < TI > < 5 section points > : SNEG, (fraction = -1.0)",132.169
C:/Users/srbb21/AppData/Local/Temp/rx18_gr30001521653382.841.odb,RELAX,Increment    105: Step Time =    1.000,SHELL-1,1137,0.749711,1.25,17.9826,ASSEMBLY_SHELL-1_ALLEL,TI,"shell < TI > < 5 section points > : SPOS, (fraction = 1.0)",116.282
C:/Users/srbb21/AppData/Local/Temp/rx18_gr30001521653382.841.odb,RELAX,Increment    105: Step Time =    1.000,SHELL-1,1138,0.749711,1.75,17.9826,ASSEMBLY_SHELL-1_ALLEL,TI,"shell < TI > < 5 section points > : SPOS, (fraction = 1.0)",116.784
C:/Users/srbb21/AppData/Local/Temp/rx18_gr30001521653382.841.odb,RELAX,Increment    105: Step Time =    1.000,SHELL-1,1138,0.749711,1.75,17.9826,ASSEMBLY_SHELL-1_ALLEL,TI,"shell < TI > < 5 section points > : SNEG, (fraction = -1.0)",131.831
C:/Users/srbb21/AppData/Local/Temp/rx18_gr30001521653382.841.odb,RELAX,Increment    105: Step Time =    1.000,SHELL-1,1139,0.749711,2.25,17.9826,ASSEMBLY_SHELL-1_ALLEL,TI,"shell < TI > < 5 section points > : SPOS, (fraction = 1.0)",117.446
C:/Users/srbb21/AppData/Local/Temp/rx18_gr30001521653382.841.odb,RELAX,Increment    105: Step Time =    1.000,SHELL-1,1139,0.749711,2.25,17.9826,ASSEMBLY_SHELL-1_ALLEL,TI,"shell < TI > < 5 section points > : SNEG, (fraction = -1.0)",131.361
C:/Users/srbb21/AppData/Local/Temp/rx18_gr30001521653382.841.odb,RELAX,Increment    105: Step Time =    1.000,SHELL-1,1140,0.749711,2.75,17.9826,ASSEMBLY_SHELL-1_ALLEL,TI,"shell < TI > < 5 section points > : SPOS, (fraction = 1.0)",118.264
C:/Users/srbb21/AppData/Local/Temp/rx18_gr30001521653382.841.odb,RELAX,Increment    105: Step Time =    1.000,SHELL-1,1140,0.749711,2.75,17.9826,ASSEMBLY_SHELL-1_ALLEL,TI,"shell < TI > < 5 section points > : SNEG, (fraction = -1.0)",130.742
C:/Users/srbb21/AppData/Local/Temp/rx18_gr30001521653382.841.odb,RELAX,Increment    105: Step Time =    1.000,SHELL-1,1141,0.749711,3.25,17.9826,ASSEMBLY_SHELL-1_ALLEL,TI,"shell < TI > < 5 section points > : SNEG, (fraction = -1.0)",129.957
C:/Users/srbb21/AppData/Local/Temp/rx18_gr30001521653382.841.odb,RELAX,Increment    105: Step Time =    1.000,SHELL-1,1141,0.749711,3.25,17.9826,ASSEMBLY_SHELL-1_ALLEL,TI,"shell < TI > < 5 section points > : SPOS, (fraction = 1.0)",119.233
C:/Users/srbb21/AppData/Local/Temp/rx18_gr30001521653382.841.odb,RELAX,Increment    105: Step Time =    1.000,SHELL-1,1142,0.749711,3.75,17.9826,ASSEMBLY_SHELL-1_ALLEL,TI,"shell < TI > < 5 section points > : SPOS, (fraction = 1.0)",120.35
C:/Users/srbb21/AppData/Local/Temp/rx18_gr30001521653382.841.odb,RELAX,Increment    105: Step Time =    1.000,SHELL-1,1142,0.749711,3.75,17.9826,ASSEMBLY_SHELL-1_ALLEL,TI,"shell < TI > < 5 section points > : SNEG, (fraction = -1.0)",128.987
C:/Users/srbb21/AppData/Local/Temp/rx18_gr30001521653382.841.odb,RELAX,Increment    105: Step Time =    1.000,SHELL-1,1143,0.749711,4.25,17.9826,ASSEMBLY_SHELL-1_ALLEL,TI,"shell < TI > < 5 section points > : SPOS, (fraction = 1.0)",121.609
C:/Users/srbb21/AppData/Local/Temp/rx18_gr30001521653382.841.odb,RELAX,Increment    105: Step Time =    1.000,SHELL-1,1143,0.749711,4.25,17.9826,ASSEMBLY_SHELL-1_ALLEL,TI,"shell < TI > < 5 section points > : SNEG, (fraction = -1.0)",127.814
C:/Users/srbb21/AppData/Local/Temp/rx18_gr30001521653382.841.odb,RELAX,Increment    105: Step Time =    1.000,SHELL-1,1144,0.749711,4.75,17.9826,ASSEMBLY_SHELL-1_ALLEL,TI,"shell < TI > < 5 section points > : SPOS, (fraction = 1.0)",123.012
C:/Users/srbb21/AppData/Local/Temp/rx18_gr30001521653382.841.odb,RELAX,Increment    105: Step Time =    1.000,SHELL-1,1144,0.749711,4.75,17.9826,ASSEMBLY_SHELL-1_ALLEL,TI,"shell < TI > < 5 section points > : SNEG, (fraction = -1.0)",126.423
C:/Users/srbb21/AppData/Local/Temp/rx18_gr30001521653382.841.odb,RELAX,Increment    105: Step Time =    1.000,SHELL-1,1145,0.749711,5.25,17.9826,ASSEMBLY_SHELL-1_ALLEL,TI,"shell < TI > < 5 section points > : SNEG, (fraction = -1.0)",124.8
C:/Users/srbb21/AppData/Local/Temp/rx18_gr30001521653382.841.odb,RELAX,Increment    105: Step Time =    1.000,SHELL-1,1145,0.749711,5.25,17.9826,ASSEMBLY_SHELL-1_ALLEL,TI,"shell < TI > < 5 section points > : SPOS, (fraction = 1.0)",124.559
C:/Users/srbb21/AppData/Local/Temp/rx18_gr30001521653382.841.odb,RELAX,Increment    105: Step Time =    1.000,SHELL-1,1146,0.749711,5.75,17.9826,ASSEMBLY_SHELL-1_ALLEL,TI,"shell < TI > < 5 section points > : SPOS, (fraction = 1.0)",126.255
C:/Users/srbb21/AppData/Local/Temp/rx18_gr30001521653382.841.odb,RELAX,Increment    105: Step Time =    1.000,SHELL-1,1146,0.749711,5.75,17.9826,ASSEMBLY_SHELL-1_ALLEL,TI,"shell < TI > < 5 section points > : SNEG, (fraction = -1.0)",122.938
C:/Users/srbb21/AppData/Local/Temp/rx18_gr30001521653382.841.odb,RELAX,Increment    105: Step Time =    1.000,SHELL-1,1147,0.749711,6.25,17.9826,ASSEMBLY_SHELL-1_ALLEL,TI,"shell < TI > < 5 section points > : SPOS, (fraction = 1.0)",128.105
C:/Users/srbb21/AppData/Local/Temp/rx18_gr30001521653382.841.odb,RELAX,Increment    105: Step Time =    1.000,SHELL-1,1147,0.749711,6.25,17.9826,ASSEMBLY_SHELL-1_ALLEL,TI,"shell < TI > < 5 section points > : SNEG, (fraction = -1.0)",120.833
C:/Users/srbb21/AppData/Local/Temp/rx18_gr30001521653382.841.odb,RELAX,Increment    105: Step Time =    1.000,SHELL-1,1148,0.749711,6.75,17.9826,ASSEMBLY_SHELL-1_ALLEL,TI,"shell < TI > < 5 section points > : SPOS, (fraction = 1.0)",130.121
C:/Users/srbb21/AppData/Local/Temp/rx18_gr30001521653382.841.odb,RELAX,Increment    105: Step Time =    1.000,SHELL-1,1148,0.749711,6.75,17.9826,ASSEMBLY_SHELL-1_ALLEL,TI,"shell < TI > < 5 section points > : SNEG, (fraction = -1.0)",118.487
C:/Users/srbb21/AppData/Local/Temp/rx18_gr30001521653382.841.odb,RELAX,Increment    105: Step Time =    1.000,SHELL-1,1149,0.749711,7.25,17.9826,ASSEMBLY_SHELL-1_ALLEL,TI,"shell < TI > < 5 section points > : SNEG, (fraction = -1.0)",115.907
C:/Users/srbb21/AppData/Local/Temp/rx18_gr30001521653382.841.odb,RELAX,Increment    105: Step Time =    1.000,SHELL-1,1149,0.749711,7.25,17.9826,ASSEMBLY_SHELL-1_ALLEL,TI,"shell < TI > < 5 section points > : SPOS, (fraction = 1.0)",132.309
C:/Users/srbb21/AppData/Local/Temp/rx18_gr30001521653382.841.odb,RELAX,Increment    105: Step Time =    1.000,SHELL-1,1150,0.749711,7.75,17.9826,ASSEMBLY_SHELL-1_ALLEL,TI,"shell < TI > < 5 section points > : SPOS, (fraction = 1.0)",134.678
C:/Users/srbb21/AppData/Local/Temp/rx18_gr30001521653382.841.odb,RELAX,Increment    105: Step Time =    1.000,SHELL-1,1150,0.749711,7.75,17.9826,ASSEMBLY_SHELL-1_ALLEL,TI,"shell < TI > < 5 section points > : SNEG, (fraction = -1.0)",113.105
C:/Users/srbb21/AppData/Local/Temp/rx18_gr30001521653382.841.odb,RELAX,Increment    105: Step Time =    1.000,SHELL-1,1151,0.749711,8.25,17.9826,ASSEMBLY_SHELL-1_ALLEL,TI,"shell < TI > < 5 section points > : SPOS, (fraction = 1.0)",137.232
C:/Users/srbb21/AppData/Local/Temp/rx18_gr30001521653382.841.odb,RELAX,Increment    105: Step Time =    1.000,SHELL-1,1151,0.749711,8.25,17.9826,ASSEMBLY_SHELL-1_ALLEL,TI,"shell < TI > < 5 section points > : SNEG, (fraction = -1.0)",110.091
C:/Users/srbb21/AppData/Local/Temp/rx18_gr30001521653382.841.odb,RELAX,Increment    105: Step Time =    1.000,SHELL-1,1152,0.749711,8.75,17.9826,ASSEMBLY_SHELL-1_ALLEL,TI,"shell < TI > < 5 section points > : SPOS, (fraction = 1.0)",139.974
C:/Users/srbb21/AppData/Local/Temp/rx18_gr30001521653382.841.odb,RELAX,Increment    105: Step Time =    1.000,SHELL-1,1152,0.749711,8.75,17.9826,ASSEMBLY_SHELL-1_ALLEL,TI,"shell < TI > < 5 section points > : SNEG, (fraction = -1.0)",106.888
C:/Users/srbb21/AppData/Local/Temp/rx18_gr30001521653382.841.odb,RELAX,Increment    105: Step Time =    1.000,SHELL-1,1153,1.24888,-8.75,17.9549,ASSEMBLY_SHELL-1_ALLEL,TI,"shell < TI > < 5 section points > : SPOS, (fraction = 1.0)",139.971
C:/Users/srbb21/AppData/Local/Temp/rx18_gr30001521653382.841.odb,RELAX,Increment    105: Step Time =    1.000,SHELL-1,1153,1.24888,-8.75,17.9549,ASSEMBLY_SHELL-1_ALLEL,TI,"shell < TI > < 5 section points > : SNEG, (fraction = -1.0)",106.789
C:/Users/srbb21/AppData/Local/Temp/rx18_gr30001521653382.841.odb,RELAX,Increment    105: Step Time =    1.000,SHELL-1,1154,1.24888,-8.25,17.9549,ASSEMBLY_SHELL-1_ALLEL,TI,"shell < TI > < 5 section points > : SNEG, (fraction = -1.0)",110.021
C:/Users/srbb21/AppData/Local/Temp/rx18_gr30001521653382.841.odb,RELAX,Increment    105: Step Time =    1.000,SHELL-1,1154,1.24888,-8.25,17.9549,ASSEMBLY_SHELL-1_ALLEL,TI,"shell < TI > < 5 section points > : SPOS, (fraction = 1.0)",137.21
C:/Users/srbb21/AppData/Local/Temp/rx18_gr30001521653382.841.odb,RELAX,Increment    105: Step Time =    1.000,SHELL-1,1155,1.24888,-7.75,17.9549,ASSEMBLY_SHELL-1_ALLEL,TI,"shell < TI > < 5 section points > : SPOS, (fraction = 1.0)",134.642
C:/Users/srbb21/AppData/Local/Temp/rx18_gr30001521653382.841.odb,RELAX,Increment    105: Step Time =    1.000,SHELL-1,1155,1.24888,-7.75,17.9549,ASSEMBLY_SHELL-1_ALLEL,TI,"shell < TI > < 5 section points > : SNEG, (fraction = -1.0)",113.061
C:/Users/srbb21/AppData/Local/Temp/rx18_gr30001521653382.841.odb,RELAX,Increment    105: Step Time =    1.000,SHELL-1,1156,1.24888,-7.25,17.9549,ASSEMBLY_SHELL-1_ALLEL,TI,"shell < TI > < 5 section points > : SPOS, (fraction = 1.0)",132.262
C:/Users/srbb21/AppData/Local/Temp/rx18_gr30001521653382.841.odb,RELAX,Increment    105: Step Time =    1.000,SHELL-1,1156,1.24888,-7.25,17.9549,ASSEMBLY_SHELL-1_ALLEL,TI,"shell < TI > < 5 section points > : SNEG, (fraction = -1.0)",115.887
C:/Users/srbb21/AppData/Local/Temp/rx18_gr30001521653382.841.odb,RELAX,Increment    105: Step Time =    1.000,SHELL-1,1157,1.24888,-6.75,17.9549,ASSEMBLY_SHELL-1_ALLEL,TI,"shell < TI > < 5 section points > : SPOS, (fraction = 1.0)",130.065
C:/Users/srbb21/AppData/Local/Temp/rx18_gr30001521653382.841.odb,RELAX,Increment    105: Step Time =    1.000,SHELL-1,1157,1.24888,-6.75,17.9549,ASSEMBLY_SHELL-1_ALLEL,TI,"shell < TI > < 5 section points > : SNEG, (fraction = -1.0)",118.486
C:/Users/srbb21/AppData/Local/Temp/rx18_gr30001521653382.841.odb,RELAX,Increment    105: Step Time =    1.000,SHELL-1,1158,1.24888,-6.25,17.9549,ASSEMBLY_SHELL-1_ALLEL,TI,"shell < TI > < 5 section points > : SNEG, (fraction = -1.0)",120.845
C:/Users/srbb21/AppData/Local/Temp/rx18_gr30001521653382.841.odb,RELAX,Increment    105: Step Time =    1.000,SHELL-1,1158,1.24888,-6.25,17.9549,ASSEMBLY_SHELL-1_ALLEL,TI,"shell < TI > < 5 section points > : SPOS, (fraction = 1.0)",128.045
C:/Users/srbb21/AppData/Local/Temp/rx18_gr30001521653382.841.odb,RELAX,Increment    105: Step Time =    1.000,SHELL-1,1159,1.24888,-5.75,17.9549,ASSEMBLY_SHELL-1_ALLEL,TI,"shell < TI > < 5 section points > : SPOS, (fraction = 1.0)",126.192
C:/Users/srbb21/AppData/Local/Temp/rx18_gr30001521653382.841.odb,RELAX,Increment    105: Step Time =    1.000,SHELL-1,1159,1.24888,-5.75,17.9549,ASSEMBLY_SHELL-1_ALLEL,TI,"shell < TI > < 5 section points > : SNEG, (fraction = -1.0)",122.959
C:/Users/srbb21/AppData/Local/Temp/rx18_gr30001521653382.841.odb,RELAX,Increment    105: Step Time =    1.000,SHELL-1,1160,1.24888,-5.25,17.9549,ASSEMBLY_SHELL-1_ALLEL,TI,"shell < TI > < 5 section points > : SPOS, (fraction = 1.0)",124.498
C:/Users/srbb21/AppData/Local/Temp/rx18_gr30001521653382.841.odb,RELAX,Increment    105: Step Time =    1.000,SHELL-1,1160,1.24888,-5.25,17.9549,ASSEMBLY_SHELL-1_ALLEL,TI,"shell < TI > < 5 section points > : SNEG, (fraction = -1.0)",124.825
C:/Users/srbb21/AppData/Local/Temp/rx18_gr30001521653382.841.odb,RELAX,Increment    105: Step Time =    1.000,SHELL-1,1161,1.24888,-4.75,17.9549,ASSEMBLY_SHELL-1_ALLEL,TI,"shell < TI > < 5 section points > : SPOS, (fraction = 1.0)",122.956
C:/Users/srbb21/AppData/Local/Temp/rx18_gr30001521653382.841.odb,RELAX,Increment    105: Step Time =    1.000,SHELL-1,1161,1.24888,-4.75,17.9549,ASSEMBLY_SHELL-1_ALLEL,TI,"shell < TI > < 5 section points > : SNEG, (fraction = -1.0)",126.447
C:/Users/srbb21/AppData/Local/Temp/rx18_gr30001521653382.841.odb,RELAX,Increment    105: Step Time =    1.000,SHELL-1,1162,1.24888,-4.25,17.9549,ASSEMBLY_SHELL-1_ALLEL,TI,"shell < TI > < 5 section points > : SNEG, (fraction = -1.0)",127.833
C:/Users/srbb21/AppData/Local/Temp/rx18_gr30001521653382.841.odb,RELAX,Increment    105: Step Time =    1.000,SHELL-1,1162,1.24888,-4.25,17.9549,ASSEMBLY_SHELL-1_ALLEL,TI,"shell < TI > < 5 section points > : SPOS, (fraction = 1.0)",121.561
C:/Users/srbb21/AppData/Local/Temp/rx18_gr30001521653382.841.odb,RELAX,Increment    105: Step Time =    1.000,SHELL-1,1163,1.24888,-3.75,17.9549,ASSEMBLY_SHELL-1_ALLEL,TI,"shell < TI > < 5 section points > : SPOS, (fraction = 1.0)",120.311
C:/Users/srbb21/AppData/Local/Temp/rx18_gr30001521653382.841.odb,RELAX,Increment    105: Step Time =    1.000,SHELL-1,1163,1.24888,-3.75,17.9549,ASSEMBLY_SHELL-1_ALLEL,TI,"shell < TI > < 5 section points > : SNEG, (fraction = -1.0)",128.996
C:/Users/srbb21/AppData/Local/Temp/rx18_gr30001521653382.841.odb,RELAX,Increment    105: Step Time =    1.000,SHELL-1,1164,1.24888,-3.25,17.9549,ASSEMBLY_SHELL-1_ALLEL,TI,"shell < TI > < 5 section points > : SPOS, (fraction = 1.0)",119.208
C:/Users/srbb21/AppData/Local/Temp/rx18_gr30001521653382.841.odb,RELAX,Increment    105: Step Time =    1.000,SHELL-1,1164,1.24888,-3.25,17.9549,ASSEMBLY_SHELL-1_ALLEL,TI,"shell < TI > < 5 section points > : SNEG, (fraction = -1.0)",129.954
C:/Users/srbb21/AppData/Local/Temp/rx18_gr30001521653382.841.odb,RELAX,Increment    105: Step Time =    1.000,SHELL-1,1165,1.24888,-2.75,17.9549,ASSEMBLY_SHELL-1_ALLEL,TI,"shell < TI > < 5 section points > : SPOS, (fraction = 1.0)",118.251
C:/Users/srbb21/AppData/Local/Temp/rx18_gr30001521653382.841.odb,RELAX,Increment    105: Step Time =    1.000,SHELL-1,1165,1.24888,-2.75,17.9549,ASSEMBLY_SHELL-1_ALLEL,TI,"shell < TI > < 5 section points > : SNEG, (fraction = -1.0)",130.725
C:/Users/srbb21/AppData/Local/Temp/rx18_gr30001521653382.841.odb,RELAX,Increment    105: Step Time =    1.000,SHELL-1,1166,1.24888,-2.25,17.9549,ASSEMBLY_SHELL-1_ALLEL,TI,"shell < TI > < 5 section points > : SNEG, (fraction = -1.0)",131.331
C:/Users/srbb21/AppData/Local/Temp/rx18_gr30001521653382.841.odb,RELAX,Increment    105: Step Time =    1.000,SHELL-1,1166,1.24888,-2.25,17.9549,ASSEMBLY_SHELL-1_ALLEL,TI,"shell < TI > < 5 section points > : SPOS, (fraction = 1.0)",117.447
C:/Users/srbb21/AppData/Local/Temp/rx18_gr30001521653382.841.odb,RELAX,Increment    105: Step Time =    1.000,SHELL-1,1167,1.24888,-1.75,17.9549,ASSEMBLY_SHELL-1_ALLEL,TI,"shell < TI > < 5 section points > : SPOS, (fraction = 1.0)",116.796
C:/Users/srbb21/AppData/Local/Temp/rx18_gr30001521653382.841.odb,RELAX,Increment    105: Step Time =    1.000,SHELL-1,1167,1.24888,-1.75,17.9549,ASSEMBLY_SHELL-1_ALLEL,TI,"shell < TI > < 5 section points > : SNEG, (fraction = -1.0)",131.789
C:/Users/srbb21/AppData/Local/Temp/rx18_gr30001521653382.841.odb,RELAX,Increment    105: Step Time =    1.000,SHELL-1,1168,1.24888,-1.25,17.9549,ASSEMBLY_SHELL-1_ALLEL,TI,"shell < TI > < 5 section points > : SPOS, (fraction = 1.0)",116.306
C:/Users/srbb21/AppData/Local/Temp/rx18_gr30001521653382.841.odb,RELAX,Increment    105: Step Time =    1.000,SHELL-1,1168,1.24888,-1.25,17.9549,ASSEMBLY_SHELL-1_ALLEL,TI,"shell < TI > < 5 section points > : SNEG, (fraction = -1.0)",132.118
C:/Users/srbb21/AppData/Local/Temp/rx18_gr30001521653382.841.odb,RELAX,Increment    105: Step Time =    1.000,SHELL-1,1169,1.24888,-0.75,17.9549,ASSEMBLY_SHELL-1_ALLEL,TI,"shell < TI > < 5 section points > : SPOS, (fraction = 1.0)",115.975
C:/Users/srbb21/AppData/Local/Temp/rx18_gr30001521653382.841.odb,RELAX,Increment    105: Step Time =    1.000,SHELL-1,1169,1.24888,-0.75,17.9549,ASSEMBLY_SHELL-1_ALLEL,TI,"shell < TI > < 5 section points > : SNEG, (fraction = -1.0)",132.327
C:/Users/srbb21/AppData/Local/Temp/rx18_gr30001521653382.841.odb,RELAX,Increment    105: Step Time =    1.000,SHELL-1,1170,1.24888,-0.25,17.9549,ASSEMBLY_SHELL-1_ALLEL,TI,"shell < TI > < 5 section points > : SPOS, (fraction = 1.0)",115.811
C:/Users/srbb21/AppData/Local/Temp/rx18_gr30001521653382.841.odb,RELAX,Increment    105: Step Time =    1.000,SHELL-1,1170,1.24888,-0.25,17.9549,ASSEMBLY_SHELL-1_ALLEL,TI,"shell < TI > < 5 section points > : SNEG, (fraction = -1.0)",132.431
C:/Users/srbb21/AppData/Local/Temp/rx18_gr30001521653382.841.odb,RELAX,Increment    105: Step Time =    1.000,SHELL-1,1171,1.24888,0.25,17.9549,ASSEMBLY_SHELL-1_ALLEL,TI,"shell < TI > < 5 section points > : SNEG, (fraction = -1.0)",132.431
C:/Users/srbb21/AppData/Local/Temp/rx18_gr30001521653382.841.odb,RELAX,Increment    105: Step Time =    1.000,SHELL-1,1171,1.24888,0.25,17.9549,ASSEMBLY_SHELL-1_ALLEL,TI,"shell < TI > < 5 section points > : SPOS, (fraction = 1.0)",115.811
C:/Users/srbb21/AppData/Local/Temp/rx18_gr30001521653382.841.odb,RELAX,Increment    105: Step Time =    1.000,SHELL-1,1172,1.24888,0.75,17.9549,ASSEMBLY_SHELL-1_ALLEL,TI,"shell < TI > < 5 section points > : SPOS, (fraction = 1.0)",115.975
C:/Users/srbb21/AppData/Local/Temp/rx18_gr30001521653382.841.odb,RELAX,Increment    105: Step Time =    1.000,SHELL-1,1172,1.24888,0.75,17.9549,ASSEMBLY_SHELL-1_ALLEL,TI,"shell < TI > < 5 section points > : SNEG, (fraction = -1.0)",132.327
C:/Users/srbb21/AppData/Local/Temp/rx18_gr30001521653382.841.odb,RELAX,Increment    105: Step Time =    1.000,SHELL-1,1173,1.24888,1.25,17.9549,ASSEMBLY_SHELL-1_ALLEL,TI,"shell < TI > < 5 section points > : SPOS, (fraction = 1.0)",116.306
C:/Users/srbb21/AppData/Local/Temp/rx18_gr30001521653382.841.odb,RELAX,Increment    105: Step Time =    1.000,SHELL-1,1173,1.24888,1.25,17.9549,ASSEMBLY_SHELL-1_ALLEL,TI,"shell < TI > < 5 section points > : SNEG, (fraction = -1.0)",132.118
C:/Users/srbb21/AppData/Local/Temp/rx18_gr30001521653382.841.odb,RELAX,Increment    105: Step Time =    1.000,SHELL-1,1174,1.24888,1.75,17.9549,ASSEMBLY_SHELL-1_ALLEL,TI,"shell < TI > < 5 section points > : SPOS, (fraction = 1.0)",116.796
C:/Users/srbb21/AppData/Local/Temp/rx18_gr30001521653382.841.odb,RELAX,Increment    105: Step Time =    1.000,SHELL-1,1174,1.24888,1.75,17.9549,ASSEMBLY_SHELL-1_ALLEL,TI,"shell < TI > < 5 section points > : SNEG, (fraction = -1.0)",131.789
C:/Users/srbb21/AppData/Local/Temp/rx18_gr30001521653382.841.odb,RELAX,Increment    105: Step Time =    1.000,SHELL-1,1175,1.24888,2.25,17.9549,ASSEMBLY_SHELL-1_ALLEL,TI,"shell < TI > < 5 section points > : SNEG, (fraction = -1.0)",131.331
C:/Users/srbb21/AppData/Local/Temp/rx18_gr30001521653382.841.odb,RELAX,Increment    105: Step Time =    1.000,SHELL-1,1175,1.24888,2.25,17.9549,ASSEMBLY_SHELL-1_ALLEL,TI,"shell < TI > < 5 section points > : SPOS, (fraction = 1.0)",117.447
C:/Users/srbb21/AppData/Local/Temp/rx18_gr30001521653382.841.odb,RELAX,Increment    105: Step Time =    1.000,SHELL-1,1176,1.24888,2.75,17.9549,ASSEMBLY_SHELL-1_ALLEL,TI,"shell < TI > < 5 section points > : SPOS, (fraction = 1.0)",118.251
C:/Users/srbb21/AppData/Local/Temp/rx18_gr30001521653382.841.odb,RELAX,Increment    105: Step Time =    1.000,SHELL-1,1176,1.24888,2.75,17.9549,ASSEMBLY_SHELL-1_ALLEL,TI,"shell < TI > < 5 section points > : SNEG, (fraction = -1.0)",130.725
C:/Users/srbb21/AppData/Local/Temp/rx18_gr30001521653382.841.odb,RELAX,Increment    105: Step Time =    1.000,SHELL-1,1177,1.24888,3.25,17.9549,ASSEMBLY_SHELL-1_ALLEL,TI,"shell < TI > < 5 section points > : SPOS, (fraction = 1.0)",119.208
C:/Users/srbb21/AppData/Local/Temp/rx18_gr30001521653382.841.odb,RELAX,Increment    105: Step Time =    1.000,SHELL-1,1177,1.24888,3.25,17.9549,ASSEMBLY_SHELL-1_ALLEL,TI,"shell < TI > < 5 section points > : SNEG, (fraction = -1.0)",129.954
C:/Users/srbb21/AppData/Local/Temp/rx18_gr30001521653382.841.odb,RELAX,Increment    105: Step Time =    1.000,SHELL-1,1178,1.24888,3.75,17.9549,ASSEMBLY_SHELL-1_ALLEL,TI,"shell < TI > < 5 section points > : SPOS, (fraction = 1.0)",120.311
C:/Users/srbb21/AppData/Local/Temp/rx18_gr30001521653382.841.odb,RELAX,Increment    105: Step Time =    1.000,SHELL-1,1178,1.24888,3.75,17.9549,ASSEMBLY_SHELL-1_ALLEL,TI,"shell < TI > < 5 section points > : SNEG, (fraction = -1.0)",128.996
C:/Users/srbb21/AppData/Local/Temp/rx18_gr30001521653382.841.odb,RELAX,Increment    105: Step Time =    1.000,SHELL-1,1179,1.24888,4.25,17.9549,ASSEMBLY_SHELL-1_ALLEL,TI,"shell < TI > < 5 section points > : SNEG, (fraction = -1.0)",127.833
C:/Users/srbb21/AppData/Local/Temp/rx18_gr30001521653382.841.odb,RELAX,Increment    105: Step Time =    1.000,SHELL-1,1179,1.24888,4.25,17.9549,ASSEMBLY_SHELL-1_ALLEL,TI,"shell < TI > < 5 section points > : SPOS, (fraction = 1.0)",121.561
C:/Users/srbb21/AppData/Local/Temp/rx18_gr30001521653382.841.odb,RELAX,Increment    105: Step Time =    1.000,SHELL-1,1180,1.24888,4.75,17.9549,ASSEMBLY_SHELL-1_ALLEL,TI,"shell < TI > < 5 section points > : SPOS, (fraction = 1.0)",122.956
C:/Users/srbb21/AppData/Local/Temp/rx18_gr30001521653382.841.odb,RELAX,Increment    105: Step Time =    1.000,SHELL-1,1180,1.24888,4.75,17.9549,ASSEMBLY_SHELL-1_ALLEL,TI,"shell < TI > < 5 section points > : SNEG, (fraction = -1.0)",126.447
C:/Users/srbb21/AppData/Local/Temp/rx18_gr30001521653382.841.odb,RELAX,Increment    105: Step Time =    1.000,SHELL-1,1181,1.24888,5.25,17.9549,ASSEMBLY_SHELL-1_ALLEL,TI,"shell < TI > < 5 section points > : SPOS, (fraction = 1.0)",124.498
C:/Users/srbb21/AppData/Local/Temp/rx18_gr30001521653382.841.odb,RELAX,Increment    105: Step Time =    1.000,SHELL-1,1181,1.24888,5.25,17.9549,ASSEMBLY_SHELL-1_ALLEL,TI,"shell < TI > < 5 section points > : SNEG, (fraction = -1.0)",124.825
C:/Users/srbb21/AppData/Local/Temp/rx18_gr30001521653382.841.odb,RELAX,Increment    105: Step Time =    1.000,SHELL-1,1182,1.24888,5.75,17.9549,ASSEMBLY_SHELL-1_ALLEL,TI,"shell < TI > < 5 section points > : SPOS, (fraction = 1.0)",126.192
C:/Users/srbb21/AppData/Local/Temp/rx18_gr30001521653382.841.odb,RELAX,Increment    105: Step Time =    1.000,SHELL-1,1182,1.24888,5.75,17.9549,ASSEMBLY_SHELL-1_ALLEL,TI,"shell < TI > < 5 section points > : SNEG, (fraction = -1.0)",122.959
C:/Users/srbb21/AppData/Local/Temp/rx18_gr30001521653382.841.odb,RELAX,Increment    105: Step Time =    1.000,SHELL-1,1183,1.24888,6.25,17.9549,ASSEMBLY_SHELL-1_ALLEL,TI,"shell < TI > < 5 section points > : SNEG, (fraction = -1.0)",120.845
C:/Users/srbb21/AppData/Local/Temp/rx18_gr30001521653382.841.odb,RELAX,Increment    105: Step Time =    1.000,SHELL-1,1183,1.24888,6.25,17.9549,ASSEMBLY_SHELL-1_ALLEL,TI,"shell < TI > < 5 section points > : SPOS, (fraction = 1.0)",128.045
C:/Users/srbb21/AppData/Local/Temp/rx18_gr30001521653382.841.odb,RELAX,Increment    105: Step Time =    1.000,SHELL-1,1184,1.24888,6.75,17.9549,ASSEMBLY_SHELL-1_ALLEL,TI,"shell < TI > < 5 section points > : SPOS, (fraction = 1.0)",130.065
C:/Users/srbb21/AppData/Local/Temp/rx18_gr30001521653382.841.odb,RELAX,Increment    105: Step Time =    1.000,SHELL-1,1184,1.24888,6.75,17.9549,ASSEMBLY_SHELL-1_ALLEL,TI,"shell < TI > < 5 section points > : SNEG, (fraction = -1.0)",118.486
C:/Users/srbb21/AppData/Local/Temp/rx18_gr30001521653382.841.odb,RELAX,Increment    105: Step Time =    1.000,SHELL-1,1185,1.24888,7.25,17.9549,ASSEMBLY_SHELL-1_ALLEL,TI,"shell < TI > < 5 section points > : SPOS, (fraction = 1.0)",132.262
C:/Users/srbb21/AppData/Local/Temp/rx18_gr30001521653382.841.odb,RELAX,Increment    105: Step Time =    1.000,SHELL-1,1185,1.24888,7.25,17.9549,ASSEMBLY_SHELL-1_ALLEL,TI,"shell < TI > < 5 section points > : SNEG, (fraction = -1.0)",115.887
C:/Users/srbb21/AppData/Local/Temp/rx18_gr30001521653382.841.odb,RELAX,Increment    105: Step Time =    1.000,SHELL-1,1186,1.24888,7.75,17.9549,ASSEMBLY_SHELL-1_ALLEL,TI,"shell < TI > < 5 section points > : SPOS, (fraction = 1.0)",134.642
C:/Users/srbb21/AppData/Local/Temp/rx18_gr30001521653382.841.odb,RELAX,Increment    105: Step Time =    1.000,SHELL-1,1186,1.24888,7.75,17.9549,ASSEMBLY_SHELL-1_ALLEL,TI,"shell < TI > < 5 section points > : SNEG, (fraction = -1.0)",113.061
C:/Users/srbb21/AppData/Local/Temp/rx18_gr30001521653382.841.odb,RELAX,Increment    105: Step Time =    1.000,SHELL-1,1187,1.24888,8.25,17.9549,ASSEMBLY_SHELL-1_ALLEL,TI,"shell < TI > < 5 section points > : SPOS, (fraction = 1.0)",137.21
C:/Users/srbb21/AppData/Local/Temp/rx18_gr30001521653382.841.odb,RELAX,Increment    105: Step Time =    1.000,SHELL-1,1187,1.24888,8.25,17.9549,ASSEMBLY_SHELL-1_ALLEL,TI,"shell < TI > < 5 section points > : SNEG, (fraction = -1.0)",110.021
C:/Users/srbb21/AppData/Local/Temp/rx18_gr30001521653382.841.odb,RELAX,Increment    105: Step Time =    1.000,SHELL-1,1188,1.24888,8.75,17.9549,ASSEMBLY_SHELL-1_ALLEL,TI,"shell < TI > < 5 section points > : SNEG, (fraction = -1.0)",106.789
C:/Users/srbb21/AppData/Local/Temp/rx18_gr30001521653382.841.odb,RELAX,Increment    105: Step Time =    1.000,SHELL-1,1188,1.24888,8.75,17.9549,ASSEMBLY_SHELL-1_ALLEL,TI,"shell < TI > < 5 section points > : SPOS, (fraction = 1.0)",139.971
C:/Users/srbb21/AppData/Local/Temp/rx18_gr30001521653382.841.odb,RELAX,Increment    105: Step Time =    1.000,SHELL-1,1189,1.74708,-8.75,17.9133,ASSEMBLY_SHELL-1_ALLEL,TI,"shell < TI > < 5 section points > : SPOS, (fraction = 1.0)",139.967
C:/Users/srbb21/AppData/Local/Temp/rx18_gr30001521653382.841.odb,RELAX,Increment    105: Step Time =    1.000,SHELL-1,1189,1.74708,-8.75,17.9133,ASSEMBLY_SHELL-1_ALLEL,TI,"shell < TI > < 5 section points > : SNEG, (fraction = -1.0)",106.639
C:/Users/srbb21/AppData/Local/Temp/rx18_gr30001521653382.841.odb,RELAX,Increment    105: Step Time =    1.000,SHELL-1,1190,1.74708,-8.25,17.9133,ASSEMBLY_SHELL-1_ALLEL,TI,"shell < TI > < 5 section points > : SPOS, (fraction = 1.0)",137.179
C:/Users/srbb21/AppData/Local/Temp/rx18_gr30001521653382.841.odb,RELAX,Increment    105: Step Time =    1.000,SHELL-1,1190,1.74708,-8.25,17.9133,ASSEMBLY_SHELL-1_ALLEL,TI,"shell < TI > < 5 section points > : SNEG, (fraction = -1.0)",109.915
C:/Users/srbb21/AppData/Local/Temp/rx18_gr30001521653382.841.odb,RELAX,Increment    105: Step Time =    1.000,SHELL-1,1191,1.74708,-7.75,17.9133,ASSEMBLY_SHELL-1_ALLEL,TI,"shell < TI > < 5 section points > : SPOS, (fraction = 1.0)",134.589
C:/Users/srbb21/AppData/Local/Temp/rx18_gr30001521653382.841.odb,RELAX,Increment    105: Step Time =    1.000,SHELL-1,1191,1.74708,-7.75,17.9133,ASSEMBLY_SHELL-1_ALLEL,TI,"shell < TI > < 5 section points > : SNEG, (fraction = -1.0)",112.996
C:/Users/srbb21/AppData/Local/Temp/rx18_gr30001521653382.841.odb,RELAX,Increment    105: Step Time =    1.000,SHELL-1,1192,1.74708,-7.25,17.9133,ASSEMBLY_SHELL-1_ALLEL,TI,"shell < TI > < 5 section points > : SNEG, (fraction = -1.0)",115.856
C:/Users/srbb21/AppData/Local/Temp/rx18_gr30001521653382.841.odb,RELAX,Increment    105: Step Time =    1.000,SHELL-1,1192,1.74708,-7.25,17.9133,ASSEMBLY_SHELL-1_ALLEL,TI,"shell < TI > < 5 section points > : SPOS, (fraction = 1.0)",132.19
C:/Users/srbb21/AppData/Local/Temp/rx18_gr30001521653382.841.odb,RELAX,Increment    105: Step Time =    1.000,SHELL-1,1193,1.74708,-6.75,17.9133,ASSEMBLY_SHELL-1_ALLEL,TI,"shell < TI > < 5 section points > : SPOS, (fraction = 1.0)",129.981
C:/Users/srbb21/AppData/Local/Temp/rx18_gr30001521653382.841.odb,RELAX,Increment    105: Step Time =    1.000,SHELL-1,1193,1.74708,-6.75,17.9133,ASSEMBLY_SHELL-1_ALLEL,TI,"shell < TI > < 5 section points > : SNEG, (fraction = -1.0)",118.484
C:/Users/srbb21/AppData/Local/Temp/rx18_gr30001521653382.841.odb,RELAX,Increment    105: Step Time =    1.000,SHELL-1,1194,1.74708,-6.25,17.9133,ASSEMBLY_SHELL-1_ALLEL,TI,"shell < TI > < 5 section points > : SPOS, (fraction = 1.0)",127.952
C:/Users/srbb21/AppData/Local/Temp/rx18_gr30001521653382.841.odb,RELAX,Increment    105: Step Time =    1.000,SHELL-1,1194,1.74708,-6.25,17.9133,ASSEMBLY_SHELL-1_ALLEL,TI,"shell < TI > < 5 section points > : SNEG, (fraction = -1.0)",120.865
C:/Users/srbb21/AppData/Local/Temp/rx18_gr30001521653382.841.odb,RELAX,Increment    105: Step Time =    1.000,SHELL-1,1195,1.74708,-5.75,17.9133,ASSEMBLY_SHELL-1_ALLEL,TI,"shell < TI > < 5 section points > : SPOS, (fraction = 1.0)",126.096
C:/Users/srbb21/AppData/Local/Temp/rx18_gr30001521653382.841.odb,RELAX,Increment    105: Step Time =    1.000,SHELL-1,1195,1.74708,-5.75,17.9133,ASSEMBLY_SHELL-1_ALLEL,TI,"shell < TI > < 5 section points > : SNEG, (fraction = -1.0)",122.994
C:/Users/srbb21/AppData/Local/Temp/rx18_gr30001521653382.841.odb,RELAX,Increment    105: Step Time =    1.000,SHELL-1,1196,1.74708,-5.25,17.9133,ASSEMBLY_SHELL-1_ALLEL,TI,"shell < TI > < 5 section points > : SNEG, (fraction = -1.0)",124.865
C:/Users/srbb21/AppData/Local/Temp/rx18_gr30001521653382.841.odb,RELAX,Increment    105: Step Time =    1.000,SHELL-1,1196,1.74708,-5.25,17.9133,ASSEMBLY_SHELL-1_ALLEL,TI,"shell < TI > < 5 section points > : SPOS, (fraction = 1.0)",124.404
C:/Users/srbb21/AppData/Local/Temp/rx18_gr30001521653382.841.odb,RELAX,Increment    105: Step Time =    1.000,SHELL-1,1197,1.74708,-4.75,17.9133,ASSEMBLY_SHELL-1_ALLEL,TI,"shell < TI > < 5 section points > : SPOS, (fraction = 1.0)",122.869
C:/Users/srbb21/AppData/Local/Temp/rx18_gr30001521653382.841.odb,RELAX,Increment    105: Step Time =    1.000,SHELL-1,1197,1.74708,-4.75,17.9133,ASSEMBLY_SHELL-1_ALLEL,TI,"shell < TI > < 5 section points > : SNEG, (fraction = -1.0)",126.485
C:/Users/srbb21/AppData/Local/Temp/rx18_gr30001521653382.841.odb,RELAX,Increment    105: Step Time =    1.000,SHELL-1,1198,1.74708,-4.25,17.9133,ASSEMBLY_SHELL-1_ALLEL,TI,"shell < TI > < 5 section points > : SPOS, (fraction = 1.0)",121.486
C:/Users/srbb21/AppData/Local/Temp/rx18_gr30001521653382.841.odb,RELAX,Increment    105: Step Time =    1.000,SHELL-1,1198,1.74708,-4.25,17.9133,ASSEMBLY_SHELL-1_ALLEL,TI,"shell < TI > < 5 section points > : SNEG, (fraction = -1.0)",127.861
C:/Users/srbb21/AppData/Local/Temp/rx18_gr30001521653382.841.odb,RELAX,Increment    105: Step Time =    1.000,SHELL-1,1199,1.74708,-3.75,17.9133,ASSEMBLY_SHELL-1_ALLEL,TI,"shell < TI > < 5 section points > : SPOS, (fraction = 1.0)",120.252
C:/Users/srbb21/AppData/Local/Temp/rx18_gr30001521653382.841.odb,RELAX,Increment    105: Step Time =    1.000,SHELL-1,1199,1.74708,-3.75,17.9133,ASSEMBLY_SHELL-1_ALLEL,TI,"shell < TI > < 5 section points > : SNEG, (fraction = -1.0)",129.01
C:/Users/srbb21/AppData/Local/Temp/rx18_gr30001521653382.841.odb,RELAX,Increment    105: Step Time =    1.000,SHELL-1,1200,1.74708,-3.25,17.9133,ASSEMBLY_SHELL-1_ALLEL,TI,"shell < TI > < 5 section points > : SNEG, (fraction = -1.0)",129.95
C:/Users/srbb21/AppData/Local/Temp/rx18_gr30001521653382.841.odb,RELAX,Increment    105: Step Time =    1.000,SHELL-1,1200,1.74708,-3.25,17.9133,ASSEMBLY_SHELL-1_ALLEL,TI,"shell < TI > < 5 section points > : SPOS, (fraction = 1.0)",119.167
C:/Users/srbb21/AppData/Local/Temp/rx18_gr30001521653382.841.odb,RELAX,Increment    105: Step Time =    1.000,SHELL-1,1201,1.74708,-2.75,17.9133,ASSEMBLY_SHELL-1_ALLEL,TI,"shell < TI > < 5 section points > : SPOS, (fraction = 1.0)",118.231
C:/Users/srbb21/AppData/Local/Temp/rx18_gr30001521653382.841.odb,RELAX,Increment    105: Step Time =    1.000,SHELL-1,1201,1.74708,-2.75,17.9133,ASSEMBLY_SHELL-1_ALLEL,TI,"shell < TI > < 5 section points > : SNEG, (fraction = -1.0)",130.702
C:/Users/srbb21/AppData/Local/Temp/rx18_gr30001521653382.841.odb,RELAX,Increment    105: Step Time =    1.000,SHELL-1,1202,1.74708,-2.25,17.9133,ASSEMBLY_SHELL-1_ALLEL,TI,"shell < TI > < 5 section points > : SPOS, (fraction = 1.0)",117.446
C:/Users/srbb21/AppData/Local/Temp/rx18_gr30001521653382.841.odb,RELAX,Increment    105: Step Time =    1.000,SHELL-1,1202,1.74708,-2.25,17.9133,ASSEMBLY_SHELL-1_ALLEL,TI,"shell < TI > < 5 section points > : SNEG, (fraction = -1.0)",131.288
C:/Users/srbb21/AppData/Local/Temp/rx18_gr30001521653382.841.odb,RELAX,Increment    105: Step Time =    1.000,SHELL-1,1203,1.74708,-1.75,17.9133,ASSEMBLY_SHELL-1_ALLEL,TI,"shell < TI > < 5 section points > : SPOS, (fraction = 1.0)",116.816
C:/Users/srbb21/AppData/Local/Temp/rx18_gr30001521653382.841.odb,RELAX,Increment    105: Step Time =    1.000,SHELL-1,1203,1.74708,-1.75,17.9133,ASSEMBLY_SHELL-1_ALLEL,TI,"shell < TI > < 5 section points > : SNEG, (fraction = -1.0)",131.729
C:/Users/srbb21/AppData/Local/Temp/rx18_gr30001521653382.841.odb,RELAX,Increment    105: Step Time =    1.000,SHELL-1,1204,1.74708,-1.25,17.9133,ASSEMBLY_SHELL-1_ALLEL,TI,"shell < TI > < 5 section points > : SNEG, (fraction = -1.0)",132.04
C:/Users/srbb21/AppData/Local/Temp/rx18_gr30001521653382.841.odb,RELAX,Increment    105: Step Time =    1.000,SHELL-1,1204,1.74708,-1.25,17.9133,ASSEMBLY_SHELL-1_ALLEL,TI,"shell < TI > < 5 section points > : SPOS, (fraction = 1.0)",116.339
C:/Users/srbb21/AppData/Local/Temp/rx18_gr30001521653382.841.odb,RELAX,Increment    105: Step Time =    1.000,SHELL-1,1205,1.74708,-0.75,17.9133,ASSEMBLY_SHELL-1_ALLEL,TI,"shell < TI > < 5 section points > : SPOS, (fraction = 1.0)",116.023
C:/Users/srbb21/AppData/Local/Temp/rx18_gr30001521653382.841.odb,RELAX,Increment    105: Step Time =    1.000,SHELL-1,1205,1.74708,-0.75,17.9133,ASSEMBLY_SHELL-1_ALLEL,TI,"shell < TI > < 5 section points > : SNEG, (fraction = -1.0)",132.242
C:/Users/srbb21/AppData/Local/Temp/rx18_gr30001521653382.841.odb,RELAX,Increment    105: Step Time =    1.000,SHELL-1,1206,1.74708,-0.25,17.9133,ASSEMBLY_SHELL-1_ALLEL,TI,"shell < TI > < 5 section points > : SPOS, (fraction = 1.0)",115.862
C:/Users/srbb21/AppData/Local/Temp/rx18_gr30001521653382.841.odb,RELAX,Increment    105: Step Time =    1.000,SHELL-1,1206,1.74708,-0.25,17.9133,ASSEMBLY_SHELL-1_ALLEL,TI,"shell < TI > < 5 section points > : SNEG, (fraction = -1.0)",132.338
C:/Users/srbb21/AppData/Local/Temp/rx18_gr30001521653382.841.odb,RELAX,Increment    105: Step Time =    1.000,SHELL-1,1207,1.74708,0.25,17.9133,ASSEMBLY_SHELL-1_ALLEL,TI,"shell < TI > < 5 section points > : SPOS, (fraction = 1.0)",115.862
C:/Users/srbb21/AppData/Local/Temp/rx18_gr30001521653382.841.odb,RELAX,Increment    105: Step Time =    1.000,SHELL-1,1207,1.74708,0.25,17.9133,ASSEMBLY_SHELL-1_ALLEL,TI,"shell < TI > < 5 section points > : SNEG, (fraction = -1.0)",132.338
C:/Users/srbb21/AppData/Local/Temp/rx18_gr30001521653382.841.odb,RELAX,Increment    105: Step Time =    1.000,SHELL-1,1208,1.74708,0.75,17.9133,ASSEMBLY_SHELL-1_ALLEL,TI,"shell < TI > < 5 section points > : SNEG, (fraction = -1.0)",132.242
C:/Users/srbb21/AppData/Local/Temp/rx18_gr30001521653382.841.odb,RELAX,Increment    105: Step Time =    1.000,SHELL-1,1208,1.74708,0.75,17.9133,ASSEMBLY_SHELL-1_ALLEL,TI,"shell < TI > < 5 section points > : SPOS, (fraction = 1.0)",116.023
C:/Users/srbb21/AppData/Local/Temp/rx18_gr30001521653382.841.odb,RELAX,Increment    105: Step Time =    1.000,SHELL-1,1209,1.74708,1.25,17.9133,ASSEMBLY_SHELL-1_ALLEL,TI,"shell < TI > < 5 section points > : SPOS, (fraction = 1.0)",116.339
C:/Users/srbb21/AppData/Local/Temp/rx18_gr30001521653382.841.odb,RELAX,Increment    105: Step Time =    1.000,SHELL-1,1209,1.74708,1.25,17.9133,ASSEMBLY_SHELL-1_ALLEL,TI,"shell < TI > < 5 section points > : SNEG, (fraction = -1.0)",132.04
C:/Users/srbb21/AppData/Local/Temp/rx18_gr30001521653382.841.odb,RELAX,Increment    105: Step Time =    1.000,SHELL-1,1210,1.74708,1.75,17.9133,ASSEMBLY_SHELL-1_ALLEL,TI,"shell < TI > < 5 section points > : SPOS, (fraction = 1.0)",116.816
C:/Users/srbb21/AppData/Local/Temp/rx18_gr30001521653382.841.odb,RELAX,Increment    105: Step Time =    1.000,SHELL-1,1210,1.74708,1.75,17.9133,ASSEMBLY_SHELL-1_ALLEL,TI,"shell < TI > < 5 section points > : SNEG, (fraction = -1.0)",131.729
C:/Users/srbb21/AppData/Local/Temp/rx18_gr30001521653382.841.odb,RELAX,Increment    105: Step Time =    1.000,SHELL-1,1211,1.74708,2.25,17.9133,ASSEMBLY_SHELL-1_ALLEL,TI,"shell < TI > < 5 section points > : SPOS, (fraction = 1.0)",117.446
C:/Users/srbb21/AppData/Local/Temp/rx18_gr30001521653382.841.odb,RELAX,Increment    105: Step Time =    1.000,SHELL-1,1211,1.74708,2.25,17.9133,ASSEMBLY_SHELL-1_ALLEL,TI,"shell < TI > < 5 section points > : SNEG, (fraction = -1.0)",131.288
C:/Users/srbb21/AppData/Local/Temp/rx18_gr30001521653382.841.odb,RELAX,Increment    105: Step Time =    1.000,SHELL-1,1212,1.74708,2.75,17.9133,ASSEMBLY_SHELL-1_ALLEL,TI,"shell < TI > < 5 section points > : SNEG, (fraction = -1.0)",130.702
C:/Users/srbb21/AppData/Local/Temp/rx18_gr30001521653382.841.odb,RELAX,Increment    105: Step Time =    1.000,SHELL-1,1212,1.74708,2.75,17.9133,ASSEMBLY_SHELL-1_ALLEL,TI,"shell < TI > < 5 section points > : SPOS, (fraction = 1.0)",118.231
C:/Users/srbb21/AppData/Local/Temp/rx18_gr30001521653382.841.odb,RELAX,Increment    105: Step Time =    1.000,SHELL-1,1213,1.74708,3.25,17.9133,ASSEMBLY_SHELL-1_ALLEL,TI,"shell < TI > < 5 section points > : SPOS, (fraction = 1.0)",119.167
C:/Users/srbb21/AppData/Local/Temp/rx18_gr30001521653382.841.odb,RELAX,Increment    105: Step Time =    1.000,SHELL-1,1213,1.74708,3.25,17.9133,ASSEMBLY_SHELL-1_ALLEL,TI,"shell < TI > < 5 section points > : SNEG, (fraction = -1.0)",129.95
C:/Users/srbb21/AppData/Local/Temp/rx18_gr30001521653382.841.odb,RELAX,Increment    105: Step Time =    1.000,SHELL-1,1214,1.74708,3.75,17.9133,ASSEMBLY_SHELL-1_ALLEL,TI,"shell < TI > < 5 section points > : SPOS, (fraction = 1.0)",120.252
C:/Users/srbb21/AppData/Local/Temp/rx18_gr30001521653382.841.odb,RELAX,Increment    105: Step Time =    1.000,SHELL-1,1214,1.74708,3.75,17.9133,ASSEMBLY_SHELL-1_ALLEL,TI,"shell < TI > < 5 section points > : SNEG, (fraction = -1.0)",129.01
C:/Users/srbb21/AppData/Local/Temp/rx18_gr30001521653382.841.odb,RELAX,Increment    105: Step Time =    1.000,SHELL-1,1215,1.74708,4.25,17.9133,ASSEMBLY_SHELL-1_ALLEL,TI,"shell < TI > < 5 section points > : SPOS, (fraction = 1.0)",121.486
C:/Users/srbb21/AppData/Local/Temp/rx18_gr30001521653382.841.odb,RELAX,Increment    105: Step Time =    1.000,SHELL-1,1215,1.74708,4.25,17.9133,ASSEMBLY_SHELL-1_ALLEL,TI,"shell < TI > < 5 section points > : SNEG, (fraction = -1.0)",127.861
C:/Users/srbb21/AppData/Local/Temp/rx18_gr30001521653382.841.odb,RELAX,Increment    105: Step Time =    1.000,SHELL-1,1216,1.74708,4.75,17.9133,ASSEMBLY_SHELL-1_ALLEL,TI,"shell < TI > < 5 section points > : SNEG, (fraction = -1.0)",126.485
C:/Users/srbb21/AppData/Local/Temp/rx18_gr30001521653382.841.odb,RELAX,Increment    105: Step Time =    1.000,SHELL-1,1216,1.74708,4.75,17.9133,ASSEMBLY_SHELL-1_ALLEL,TI,"shell < TI > < 5 section points > : SPOS, (fraction = 1.0)",122.869
C:/Users/srbb21/AppData/Local/Temp/rx18_gr30001521653382.841.odb,RELAX,Increment    105: Step Time =    1.000,SHELL-1,1217,1.74708,5.25,17.9133,ASSEMBLY_SHELL-1_ALLEL,TI,"shell < TI > < 5 section points > : SPOS, (fraction = 1.0)",124.404
C:/Users/srbb21/AppData/Local/Temp/rx18_gr30001521653382.841.odb,RELAX,Increment    105: Step Time =    1.000,SHELL-1,1217,1.74708,5.25,17.9133,ASSEMBLY_SHELL-1_ALLEL,TI,"shell < TI > < 5 section points > : SNEG, (fraction = -1.0)",124.865
C:/Users/srbb21/AppData/Local/Temp/rx18_gr30001521653382.841.odb,RELAX,Increment    105: Step Time =    1.000,SHELL-1,1218,1.74708,5.75,17.9133,ASSEMBLY_SHELL-1_ALLEL,TI,"shell < TI > < 5 section points > : SPOS, (fraction = 1.0)",126.096
C:/Users/srbb21/AppData/Local/Temp/rx18_gr30001521653382.841.odb,RELAX,Increment    105: Step Time =    1.000,SHELL-1,1218,1.74708,5.75,17.9133,ASSEMBLY_SHELL-1_ALLEL,TI,"shell < TI > < 5 section points > : SNEG, (fraction = -1.0)",122.994
C:/Users/srbb21/AppData/Local/Temp/rx18_gr30001521653382.841.odb,RELAX,Increment    105: Step Time =    1.000,SHELL-1,1219,1.74708,6.25,17.9133,ASSEMBLY_SHELL-1_ALLEL,TI,"shell < TI > < 5 section points > : SPOS, (fraction = 1.0)",127.952
C:/Users/srbb21/AppData/Local/Temp/rx18_gr30001521653382.841.odb,RELAX,Increment    105: Step Time =    1.000,SHELL-1,1219,1.74708,6.25,17.9133,ASSEMBLY_SHELL-1_ALLEL,TI,"shell < TI > < 5 section points > : SNEG, (fraction = -1.0)",120.865
C:/Users/srbb21/AppData/Local/Temp/rx18_gr30001521653382.841.odb,RELAX,Increment    105: Step Time =    1.000,SHELL-1,1220,1.74708,6.75,17.9133,ASSEMBLY_SHELL-1_ALLEL,TI,"shell < TI > < 5 section points > : SPOS, (fraction = 1.0)",129.981
C:/Users/srbb21/AppData/Local/Temp/rx18_gr30001521653382.841.odb,RELAX,Increment    105: Step Time =    1.000,SHELL-1,1220,1.74708,6.75,17.9133,ASSEMBLY_SHELL-1_ALLEL,TI,"shell < TI > < 5 section points > : SNEG, (fraction = -1.0)",118.484
C:/Users/srbb21/AppData/Local/Temp/rx18_gr30001521653382.841.odb,RELAX,Increment    105: Step Time =    1.000,SHELL-1,1221,1.74708,7.25,17.9133,ASSEMBLY_SHELL-1_ALLEL,TI,"shell < TI > < 5 section points > : SNEG, (fraction = -1.0)",115.856
C:/Users/srbb21/AppData/Local/Temp/rx18_gr30001521653382.841.odb,RELAX,Increment    105: Step Time =    1.000,SHELL-1,1221,1.74708,7.25,17.9133,ASSEMBLY_SHELL-1_ALLEL,TI,"shell < TI > < 5 section points > : SPOS, (fraction = 1.0)",132.19
C:/Users/srbb21/AppData/Local/Temp/rx18_gr30001521653382.841.odb,RELAX,Increment    105: Step Time =    1.000,SHELL-1,1222,1.74708,7.75,17.9133,ASSEMBLY_SHELL-1_ALLEL,TI,"shell < TI > < 5 section points > : SPOS, (fraction = 1.0)",134.589
C:/Users/srbb21/AppData/Local/Temp/rx18_gr30001521653382.841.odb,RELAX,Increment    105: Step Time =    1.000,SHELL-1,1222,1.74708,7.75,17.9133,ASSEMBLY_SHELL-1_ALLEL,TI,"shell < TI > < 5 section points > : SNEG, (fraction = -1.0)",112.996
C:/Users/srbb21/AppData/Local/Temp/rx18_gr30001521653382.841.odb,RELAX,Increment    105: Step Time =    1.000,SHELL-1,1223,1.74708,8.25,17.9133,ASSEMBLY_SHELL-1_ALLEL,TI,"shell < TI > < 5 section points > : SPOS, (fraction = 1.0)",137.179
C:/Users/srbb21/AppData/Local/Temp/rx18_gr30001521653382.841.odb,RELAX,Increment    105: Step Time =    1.000,SHELL-1,1223,1.74708,8.25,17.9133,ASSEMBLY_SHELL-1_ALLEL,TI,"shell < TI > < 5 section points > : SNEG, (fraction = -1.0)",109.915
C:/Users/srbb21/AppData/Local/Temp/rx18_gr30001521653382.841.odb,RELAX,Increment    105: Step Time =    1.000,SHELL-1,1224,1.74708,8.75,17.9133,ASSEMBLY_SHELL-1_ALLEL,TI,"shell < TI > < 5 section points > : SPOS, (fraction = 1.0)",139.967
C:/Users/srbb21/AppData/Local/Temp/rx18_gr30001521653382.841.odb,RELAX,Increment    105: Step Time =    1.000,SHELL-1,1224,1.74708,8.75,17.9133,ASSEMBLY_SHELL-1_ALLEL,TI,"shell < TI > < 5 section points > : SNEG, (fraction = -1.0)",106.639
C:/Users/srbb21/AppData/Local/Temp/rx18_gr30001521653382.841.odb,RELAX,Increment    105: Step Time =    1.000,SHELL-1,1225,2.24393,-8.75,17.8578,ASSEMBLY_SHELL-1_ALLEL,TI,"shell < TI > < 5 section points > : SNEG, (fraction = -1.0)",106.436
C:/Users/srbb21/AppData/Local/Temp/rx18_gr30001521653382.841.odb,RELAX,Increment    105: Step Time =    1.000,SHELL-1,1225,2.24393,-8.75,17.8578,ASSEMBLY_SHELL-1_ALLEL,TI,"shell < TI > < 5 section points > : SPOS, (fraction = 1.0)",139.966
C:/Users/srbb21/AppData/Local/Temp/rx18_gr30001521653382.841.odb,RELAX,Increment    105: Step Time =    1.000,SHELL-1,1226,2.24393,-8.25,17.8578,ASSEMBLY_SHELL-1_ALLEL,TI,"shell < TI > < 5 section points > : SPOS, (fraction = 1.0)",137.141
C:/Users/srbb21/AppData/Local/Temp/rx18_gr30001521653382.841.odb,RELAX,Increment    105: Step Time =    1.000,SHELL-1,1226,2.24393,-8.25,17.8578,ASSEMBLY_SHELL-1_ALLEL,TI,"shell < TI > < 5 section points > : SNEG, (fraction = -1.0)",109.773
C:/Users/srbb21/AppData/Local/Temp/rx18_gr30001521653382.841.odb,RELAX,Increment    105: Step Time =    1.000,SHELL-1,1227,2.24393,-7.75,17.8578,ASSEMBLY_SHELL-1_ALLEL,TI,"shell < TI > < 5 section points > : SPOS, (fraction = 1.0)",134.519
C:/Users/srbb21/AppData/Local/Temp/rx18_gr30001521653382.841.odb,RELAX,Increment    105: Step Time =    1.000,SHELL-1,1227,2.24393,-7.75,17.8578,ASSEMBLY_SHELL-1_ALLEL,TI,"shell < TI > < 5 section points > : SNEG, (fraction = -1.0)",112.907
C:/Users/srbb21/AppData/Local/Temp/rx18_gr30001521653382.841.odb,RELAX,Increment    105: Step Time =    1.000,SHELL-1,1228,2.24393,-7.25,17.8578,ASSEMBLY_SHELL-1_ALLEL,TI,"shell < TI > < 5 section points > : SPOS, (fraction = 1.0)",132.095
C:/Users/srbb21/AppData/Local/Temp/rx18_gr30001521653382.841.odb,RELAX,Increment    105: Step Time =    1.000,SHELL-1,1228,2.24393,-7.25,17.8578,ASSEMBLY_SHELL-1_ALLEL,TI,"shell < TI > < 5 section points > : SNEG, (fraction = -1.0)",115.817
C:/Users/srbb21/AppData/Local/Temp/rx18_gr30001521653382.841.odb,RELAX,Increment    105: Step Time =    1.000,SHELL-1,1229,2.24393,-6.75,17.8578,ASSEMBLY_SHELL-1_ALLEL,TI,"shell < TI > < 5 section points > : SNEG, (fraction = -1.0)",118.484
C:/Users/srbb21/AppData/Local/Temp/rx18_gr30001521653382.841.odb,RELAX,Increment    105: Step Time =    1.000,SHELL-1,1229,2.24393,-6.75,17.8578,ASSEMBLY_SHELL-1_ALLEL,TI,"shell < TI > < 5 section points > : SPOS, (fraction = 1.0)",129.866
C:/Users/srbb21/AppData/Local/Temp/rx18_gr30001521653382.841.odb,RELAX,Increment    105: Step Time =    1.000,SHELL-1,1230,2.24393,-6.25,17.8578,ASSEMBLY_SHELL-1_ALLEL,TI,"shell < TI > < 5 section points > : SPOS, (fraction = 1.0)",127.825
C:/Users/srbb21/AppData/Local/Temp/rx18_gr30001521653382.841.odb,RELAX,Increment    105: Step Time =    1.000,SHELL-1,1230,2.24393,-6.25,17.8578,ASSEMBLY_SHELL-1_ALLEL,TI,"shell < TI > < 5 section points > : SNEG, (fraction = -1.0)",120.896
C:/Users/srbb21/AppData/Local/Temp/rx18_gr30001521653382.841.odb,RELAX,Increment    105: Step Time =    1.000,SHELL-1,1231,2.24393,-5.75,17.8578,ASSEMBLY_SHELL-1_ALLEL,TI,"shell < TI > < 5 section points > : SPOS, (fraction = 1.0)",125.963
C:/Users/srbb21/AppData/Local/Temp/rx18_gr30001521653382.841.odb,RELAX,Increment    105: Step Time =    1.000,SHELL-1,1231,2.24393,-5.75,17.8578,ASSEMBLY_SHELL-1_ALLEL,TI,"shell < TI > < 5 section points > : SNEG, (fraction = -1.0)",123.043
C:/Users/srbb21/AppData/Local/Temp/rx18_gr30001521653382.841.odb,RELAX,Increment    105: Step Time =    1.000,SHELL-1,1232,2.24393,-5.25,17.8578,ASSEMBLY_SHELL-1_ALLEL,TI,"shell < TI > < 5 section points > : SPOS, (fraction = 1.0)",124.274
C:/Users/srbb21/AppData/Local/Temp/rx18_gr30001521653382.841.odb,RELAX,Increment    105: Step Time =    1.000,SHELL-1,1232,2.24393,-5.25,17.8578,ASSEMBLY_SHELL-1_ALLEL,TI,"shell < TI > < 5 section points > : SNEG, (fraction = -1.0)",124.923
C:/Users/srbb21/AppData/Local/Temp/rx18_gr30001521653382.841.odb,RELAX,Increment    105: Step Time =    1.000,SHELL-1,1233,2.24393,-4.75,17.8578,ASSEMBLY_SHELL-1_ALLEL,TI,"shell < TI > < 5 section points > : SNEG, (fraction = -1.0)",126.539
C:/Users/srbb21/AppData/Local/Temp/rx18_gr30001521653382.841.odb,RELAX,Increment    105: Step Time =    1.000,SHELL-1,1233,2.24393,-4.75,17.8578,ASSEMBLY_SHELL-1_ALLEL,TI,"shell < TI > < 5 section points > : SPOS, (fraction = 1.0)",122.748
C:/Users/srbb21/AppData/Local/Temp/rx18_gr30001521653382.841.odb,RELAX,Increment    105: Step Time =    1.000,SHELL-1,1234,2.24393,-4.25,17.8578,ASSEMBLY_SHELL-1_ALLEL,TI,"shell < TI > < 5 section points > : SPOS, (fraction = 1.0)",121.382
C:/Users/srbb21/AppData/Local/Temp/rx18_gr30001521653382.841.odb,RELAX,Increment    105: Step Time =    1.000,SHELL-1,1234,2.24393,-4.25,17.8578,ASSEMBLY_SHELL-1_ALLEL,TI,"shell < TI > < 5 section points > : SNEG, (fraction = -1.0)",127.904
C:/Users/srbb21/AppData/Local/Temp/rx18_gr30001521653382.841.odb,RELAX,Increment    105: Step Time =    1.000,SHELL-1,1235,2.24393,-3.75,17.8578,ASSEMBLY_SHELL-1_ALLEL,TI,"shell < TI > < 5 section points > : SPOS, (fraction = 1.0)",120.169
C:/Users/srbb21/AppData/Local/Temp/rx18_gr30001521653382.841.odb,RELAX,Increment    105: Step Time =    1.000,SHELL-1,1235,2.24393,-3.75,17.8578,ASSEMBLY_SHELL-1_ALLEL,TI,"shell < TI > < 5 section points > : SNEG, (fraction = -1.0)",129.033
C:/Users/srbb21/AppData/Local/Temp/rx18_gr30001521653382.841.odb,RELAX,Increment    105: Step Time =    1.000,SHELL-1,1236,2.24393,-3.25,17.8578,ASSEMBLY_SHELL-1_ALLEL,TI,"shell < TI > < 5 section points > : SPOS, (fraction = 1.0)",119.111
C:/Users/srbb21/AppData/Local/Temp/rx18_gr30001521653382.841.odb,RELAX,Increment    105: Step Time =    1.000,SHELL-1,1236,2.24393,-3.25,17.8578,ASSEMBLY_SHELL-1_ALLEL,TI,"shell < TI > < 5 section points > : SNEG, (fraction = -1.0)",129.95
C:/Users/srbb21/AppData/Local/Temp/rx18_gr30001521653382.841.odb,RELAX,Increment    105: Step Time =    1.000,SHELL-1,1237,2.24393,-2.75,17.8578,ASSEMBLY_SHELL-1_ALLEL,TI,"shell < TI > < 5 section points > : SPOS, (fraction = 1.0)",118.203
C:/Users/srbb21/AppData/Local/Temp/rx18_gr30001521653382.841.odb,RELAX,Increment    105: Step Time =    1.000,SHELL-1,1237,2.24393,-2.75,17.8578,ASSEMBLY_SHELL-1_ALLEL,TI,"shell < TI > < 5 section points > : SNEG, (fraction = -1.0)",130.675
C:/Users/srbb21/AppData/Local/Temp/rx18_gr30001521653382.841.odb,RELAX,Increment    105: Step Time =    1.000,SHELL-1,1238,2.24393,-2.25,17.8578,ASSEMBLY_SHELL-1_ALLEL,TI,"shell < TI > < 5 section points > : SNEG, (fraction = -1.0)",131.235
C:/Users/srbb21/AppData/Local/Temp/rx18_gr30001521653382.841.odb,RELAX,Increment    105: Step Time =    1.000,SHELL-1,1238,2.24393,-2.25,17.8578,ASSEMBLY_SHELL-1_ALLEL,TI,"shell < TI > < 5 section points > : SPOS, (fraction = 1.0)",117.447
C:/Users/srbb21/AppData/Local/Temp/rx18_gr30001521653382.841.odb,RELAX,Increment    105: Step Time =    1.000,SHELL-1,1239,2.24393,-1.75,17.8578,ASSEMBLY_SHELL-1_ALLEL,TI,"shell < TI > < 5 section points > : SPOS, (fraction = 1.0)",116.841
C:/Users/srbb21/AppData/Local/Temp/rx18_gr30001521653382.841.odb,RELAX,Increment    105: Step Time =    1.000,SHELL-1,1239,2.24393,-1.75,17.8578,ASSEMBLY_SHELL-1_ALLEL,TI,"shell < TI > < 5 section points > : SNEG, (fraction = -1.0)",131.65
C:/Users/srbb21/AppData/Local/Temp/rx18_gr30001521653382.841.odb,RELAX,Increment    105: Step Time =    1.000,SHELL-1,1240,2.24393,-1.25,17.8578,ASSEMBLY_SHELL-1_ALLEL,TI,"shell < TI > < 5 section points > : SPOS, (fraction = 1.0)",116.389
C:/Users/srbb21/AppData/Local/Temp/rx18_gr30001521653382.841.odb,RELAX,Increment    105: Step Time =    1.000,SHELL-1,1240,2.24393,-1.25,17.8578,ASSEMBLY_SHELL-1_ALLEL,TI,"shell < TI > < 5 section points > : SNEG, (fraction = -1.0)",131.944
C:/Users/srbb21/AppData/Local/Temp/rx18_gr30001521653382.841.odb,RELAX,Increment    105: Step Time =    1.000,SHELL-1,1241,2.24393,-0.75,17.8578,ASSEMBLY_SHELL-1_ALLEL,TI,"shell < TI > < 5 section points > : SPOS, (fraction = 1.0)",116.086
C:/Users/srbb21/AppData/Local/Temp/rx18_gr30001521653382.841.odb,RELAX,Increment    105: Step Time =    1.000,SHELL-1,1241,2.24393,-0.75,17.8578,ASSEMBLY_SHELL-1_ALLEL,TI,"shell < TI > < 5 section points > : SNEG, (fraction = -1.0)",132.129
C:/Users/srbb21/AppData/Local/Temp/rx18_gr30001521653382.841.odb,RELAX,Increment    105: Step Time =    1.000,SHELL-1,1242,2.24393,-0.25,17.8578,ASSEMBLY_SHELL-1_ALLEL,TI,"shell < TI > < 5 section points > : SNEG, (fraction = -1.0)",132.22
C:/Users/srbb21/AppData/Local/Temp/rx18_gr30001521653382.841.odb,RELAX,Increment    105: Step Time =    1.000,SHELL-1,1242,2.24393,-0.25,17.8578,ASSEMBLY_SHELL-1_ALLEL,TI,"shell < TI > < 5 section points > : SPOS, (fraction = 1.0)",115.935
C:/Users/srbb21/AppData/Local/Temp/rx18_gr30001521653382.841.odb,RELAX,Increment    105: Step Time =    1.000,SHELL-1,1243,2.24393,0.25,17.8578,ASSEMBLY_SHELL-1_ALLEL,TI,"shell < TI > < 5 section points > : SPOS, (fraction = 1.0)",115.935
C:/Users/srbb21/AppData/Local/Temp/rx18_gr30001521653382.841.odb,RELAX,Increment    105: Step Time =    1.000,SHELL-1,1243,2.24393,0.25,17.8578,ASSEMBLY_SHELL-1_ALLEL,TI,"shell < TI > < 5 section points > : SNEG, (fraction = -1.0)",132.22
C:/Users/srbb21/AppData/Local/Temp/rx18_gr30001521653382.841.odb,RELAX,Increment    105: Step Time =    1.000,SHELL-1,1244,2.24393,0.75,17.8578,ASSEMBLY_SHELL-1_ALLEL,TI,"shell < TI > < 5 section points > : SPOS, (fraction = 1.0)",116.086
C:/Users/srbb21/AppData/Local/Temp/rx18_gr30001521653382.841.odb,RELAX,Increment    105: Step Time =    1.000,SHELL-1,1244,2.24393,0.75,17.8578,ASSEMBLY_SHELL-1_ALLEL,TI,"shell < TI > < 5 section points > : SNEG, (fraction = -1.0)",132.129
C:/Users/srbb21/AppData/Local/Temp/rx18_gr30001521653382.841.odb,RELAX,Increment    105: Step Time =    1.000,SHELL-1,1245,2.24393,1.25,17.8578,ASSEMBLY_SHELL-1_ALLEL,TI,"shell < TI > < 5 section points > : SPOS, (fraction = 1.0)",116.389
C:/Users/srbb21/AppData/Local/Temp/rx18_gr30001521653382.841.odb,RELAX,Increment    105: Step Time =    1.000,SHELL-1,1245,2.24393,1.25,17.8578,ASSEMBLY_SHELL-1_ALLEL,TI,"shell < TI > < 5 section points > : SNEG, (fraction = -1.0)",131.944
C:/Users/srbb21/AppData/Local/Temp/rx18_gr30001521653382.841.odb,RELAX,Increment    105: Step Time =    1.000,SHELL-1,1246,2.24393,1.75,17.8578,ASSEMBLY_SHELL-1_ALLEL,TI,"shell < TI > < 5 section points > : SNEG, (fraction = -1.0)",131.65
C:/Users/srbb21/AppData/Local/Temp/rx18_gr30001521653382.841.odb,RELAX,Increment    105: Step Time =    1.000,SHELL-1,1246,2.24393,1.75,17.8578,ASSEMBLY_SHELL-1_ALLEL,TI,"shell < TI > < 5 section points > : SPOS, (fraction = 1.0)",116.841
C:/Users/srbb21/AppData/Local/Temp/rx18_gr30001521653382.841.odb,RELAX,Increment    105: Step Time =    1.000,SHELL-1,1247,2.24393,2.25,17.8578,ASSEMBLY_SHELL-1_ALLEL,TI,"shell < TI > < 5 section points > : SPOS, (fraction = 1.0)",117.447
C:/Users/srbb21/AppData/Local/Temp/rx18_gr30001521653382.841.odb,RELAX,Increment    105: Step Time =    1.000,SHELL-1,1247,2.24393,2.25,17.8578,ASSEMBLY_SHELL-1_ALLEL,TI,"shell < TI > < 5 section points > : SNEG, (fraction = -1.0)",131.235
C:/Users/srbb21/AppData/Local/Temp/rx18_gr30001521653382.841.odb,RELAX,Increment    105: Step Time =    1.000,SHELL-1,1248,2.24393,2.75,17.8578,ASSEMBLY_SHELL-1_ALLEL,TI,"shell < TI > < 5 section points > : SPOS, (fraction = 1.0)",118.203
C:/Users/srbb21/AppData/Local/Temp/rx18_gr30001521653382.841.odb,RELAX,Increment    105: Step Time =    1.000,SHELL-1,1248,2.24393,2.75,17.8578,ASSEMBLY_SHELL-1_ALLEL,TI,"shell < TI > < 5 section points > : SNEG, (fraction = -1.0)",130.675
C:/Users/srbb21/AppData/Local/Temp/rx18_gr30001521653382.841.odb,RELAX,Increment    105: Step Time =    1.000,SHELL-1,1249,2.24393,3.25,17.8578,ASSEMBLY_SHELL-1_ALLEL,TI,"shell < TI > < 5 section points > : SPOS, (fraction = 1.0)",119.111
C:/Users/srbb21/AppData/Local/Temp/rx18_gr30001521653382.841.odb,RELAX,Increment    105: Step Time =    1.000,SHELL-1,1249,2.24393,3.25,17.8578,ASSEMBLY_SHELL-1_ALLEL,TI,"shell < TI > < 5 section points > : SNEG, (fraction = -1.0)",129.95
C:/Users/srbb21/AppData/Local/Temp/rx18_gr30001521653382.841.odb,RELAX,Increment    105: Step Time =    1.000,SHELL-1,1250,2.24393,3.75,17.8578,ASSEMBLY_SHELL-1_ALLEL,TI,"shell < TI > < 5 section points > : SNEG, (fraction = -1.0)",129.033
C:/Users/srbb21/AppData/Local/Temp/rx18_gr30001521653382.841.odb,RELAX,Increment    105: Step Time =    1.000,SHELL-1,1250,2.24393,3.75,17.8578,ASSEMBLY_SHELL-1_ALLEL,TI,"shell < TI > < 5 section points > : SPOS, (fraction = 1.0)",120.169
C:/Users/srbb21/AppData/Local/Temp/rx18_gr30001521653382.841.odb,RELAX,Increment    105: Step Time =    1.000,SHELL-1,1251,2.24393,4.25,17.8578,ASSEMBLY_SHELL-1_ALLEL,TI,"shell < TI > < 5 section points > : SPOS, (fraction = 1.0)",121.382
C:/Users/srbb21/AppData/Local/Temp/rx18_gr30001521653382.841.odb,RELAX,Increment    105: Step Time =    1.000,SHELL-1,1251,2.24393,4.25,17.8578,ASSEMBLY_SHELL-1_ALLEL,TI,"shell < TI > < 5 section points > : SNEG, (fraction = -1.0)",127.904
C:/Users/srbb21/AppData/Local/Temp/rx18_gr30001521653382.841.odb,RELAX,Increment    105: Step Time =    1.000,SHELL-1,1252,2.24393,4.75,17.8578,ASSEMBLY_SHELL-1_ALLEL,TI,"shell < TI > < 5 section points > : SPOS, (fraction = 1.0)",122.748
C:/Users/srbb21/AppData/Local/Temp/rx18_gr30001521653382.841.odb,RELAX,Increment    105: Step Time =    1.000,SHELL-1,1252,2.24393,4.75,17.8578,ASSEMBLY_SHELL-1_ALLEL,TI,"shell < TI > < 5 section points > : SNEG, (fraction = -1.0)",126.539
C:/Users/srbb21/AppData/Local/Temp/rx18_gr30001521653382.841.odb,RELAX,Increment    105: Step Time =    1.000,SHELL-1,1253,2.24393,5.25,17.8578,ASSEMBLY_SHELL-1_ALLEL,TI,"shell < TI > < 5 section points > : SPOS, (fraction = 1.0)",124.274
C:/Users/srbb21/AppData/Local/Temp/rx18_gr30001521653382.841.odb,RELAX,Increment    105: Step Time =    1.000,SHELL-1,1253,2.24393,5.25,17.8578,ASSEMBLY_SHELL-1_ALLEL,TI,"shell < TI > < 5 section points > : SNEG, (fraction = -1.0)",124.923
C:/Users/srbb21/AppData/Local/Temp/rx18_gr30001521653382.841.odb,RELAX,Increment    105: Step Time =    1.000,SHELL-1,1254,2.24393,5.75,17.8578,ASSEMBLY_SHELL-1_ALLEL,TI,"shell < TI > < 5 section points > : SPOS, (fraction = 1.0)",125.963
C:/Users/srbb21/AppData/Local/Temp/rx18_gr30001521653382.841.odb,RELAX,Increment    105: Step Time =    1.000,SHELL-1,1254,2.24393,5.75,17.8578,ASSEMBLY_SHELL-1_ALLEL,TI,"shell < TI > < 5 section points > : SNEG, (fraction = -1.0)",123.043
C:/Users/srbb21/AppData/Local/Temp/rx18_gr30001521653382.841.odb,RELAX,Increment    105: Step Time =    1.000,SHELL-1,1255,2.24393,6.25,17.8578,ASSEMBLY_SHELL-1_ALLEL,TI,"shell < TI > < 5 section points > : SNEG, (fraction = -1.0)",120.896
C:/Users/srbb21/AppData/Local/Temp/rx18_gr30001521653382.841.odb,RELAX,Increment    105: Step Time =    1.000,SHELL-1,1255,2.24393,6.25,17.8578,ASSEMBLY_SHELL-1_ALLEL,TI,"shell < TI > < 5 section points > : SPOS, (fraction = 1.0)",127.825
C:/Users/srbb21/AppData/Local/Temp/rx18_gr30001521653382.841.odb,RELAX,Increment    105: Step Time =    1.000,SHELL-1,1256,2.24393,6.75,17.8578,ASSEMBLY_SHELL-1_ALLEL,TI,"shell < TI > < 5 section points > : SPOS, (fraction = 1.0)",129.866
C:/Users/srbb21/AppData/Local/Temp/rx18_gr30001521653382.841.odb,RELAX,Increment    105: Step Time =    1.000,SHELL-1,1256,2.24393,6.75,17.8578,ASSEMBLY_SHELL-1_ALLEL,TI,"shell < TI > < 5 section points > : SNEG, (fraction = -1.0)",118.484
C:/Users/srbb21/AppData/Local/Temp/rx18_gr30001521653382.841.odb,RELAX,Increment    105: Step Time =    1.000,SHELL-1,1257,2.24393,7.25,17.8578,ASSEMBLY_SHELL-1_ALLEL,TI,"shell < TI > < 5 section points > : SPOS, (fraction = 1.0)",132.095
C:/Users/srbb21/AppData/Local/Temp/rx18_gr30001521653382.841.odb,RELAX,Increment    105: Step Time =    1.000,SHELL-1,1257,2.24393,7.25,17.8578,ASSEMBLY_SHELL-1_ALLEL,TI,"shell < TI > < 5 section points > : SNEG, (fraction = -1.0)",115.817
C:/Users/srbb21/AppData/Local/Temp/rx18_gr30001521653382.841.odb,RELAX,Increment    105: Step Time =    1.000,SHELL-1,1258,2.24393,7.75,17.8578,ASSEMBLY_SHELL-1_ALLEL,TI,"shell < TI > < 5 section points > : SPOS, (fraction = 1.0)",134.519
C:/Users/srbb21/AppData/Local/Temp/rx18_gr30001521653382.841.odb,RELAX,Increment    105: Step Time =    1.000,SHELL-1,1258,2.24393,7.75,17.8578,ASSEMBLY_SHELL-1_ALLEL,TI,"shell < TI > < 5 section points > : SNEG, (fraction = -1.0)",112.907
C:/Users/srbb21/AppData/Local/Temp/rx18_gr30001521653382.841.odb,RELAX,Increment    105: Step Time =    1.000,SHELL-1,1259,2.24393,8.25,17.8578,ASSEMBLY_SHELL-1_ALLEL,TI,"shell < TI > < 5 section points > : SNEG, (fraction = -1.0)",109.773
C:/Users/srbb21/AppData/Local/Temp/rx18_gr30001521653382.841.odb,RELAX,Increment    105: Step Time =    1.000,SHELL-1,1259,2.24393,8.25,17.8578,ASSEMBLY_SHELL-1_ALLEL,TI,"shell < TI > < 5 section points > : SPOS, (fraction = 1.0)",137.141
C:/Users/srbb21/AppData/Local/Temp/rx18_gr30001521653382.841.odb,RELAX,Increment    105: Step Time =    1.000,SHELL-1,1260,2.24393,8.75,17.8578,ASSEMBLY_SHELL-1_ALLEL,TI,"shell < TI > < 5 section points > : SPOS, (fraction = 1.0)",139.966
C:/Users/srbb21/AppData/Local/Temp/rx18_gr30001521653382.841.odb,RELAX,Increment    105: Step Time =    1.000,SHELL-1,1260,2.24393,8.75,17.8578,ASSEMBLY_SHELL-1_ALLEL,TI,"shell < TI > < 5 section points > : SNEG, (fraction = -1.0)",106.436
C:/Users/srbb21/AppData/Local/Temp/rx18_gr30001521653382.841.odb,RELAX,Increment    105: Step Time =    1.000,SHELL-1,1261,2.73905,-8.75,17.7886,ASSEMBLY_SHELL-1_ALLEL,TI,"shell < TI > < 5 section points > : SPOS, (fraction = 1.0)",139.969
C:/Users/srbb21/AppData/Local/Temp/rx18_gr30001521653382.841.odb,RELAX,Increment    105: Step Time =    1.000,SHELL-1,1261,2.73905,-8.75,17.7886,ASSEMBLY_SHELL-1_ALLEL,TI,"shell < TI > < 5 section points > : SNEG, (fraction = -1.0)",106.179
C:/Users/srbb21/AppData/Local/Temp/rx18_gr30001521653382.841.odb,RELAX,Increment    105: Step Time =    1.000,SHELL-1,1262,2.73905,-8.25,17.7886,ASSEMBLY_SHELL-1_ALLEL,TI,"shell < TI > < 5 section points > : SPOS, (fraction = 1.0)",137.096
C:/Users/srbb21/AppData/Local/Temp/rx18_gr30001521653382.841.odb,RELAX,Increment    105: Step Time =    1.000,SHELL-1,1262,2.73905,-8.25,17.7886,ASSEMBLY_SHELL-1_ALLEL,TI,"shell < TI > < 5 section points > : SNEG, (fraction = -1.0)",109.591
C:/Users/srbb21/AppData/Local/Temp/rx18_gr30001521653382.841.odb,RELAX,Increment    105: Step Time =    1.000,SHELL-1,1263,2.73905,-7.75,17.7886,ASSEMBLY_SHELL-1_ALLEL,TI,"shell < TI > < 5 section points > : SNEG, (fraction = -1.0)",112.797
C:/Users/srbb21/AppData/Local/Temp/rx18_gr30001521653382.841.odb,RELAX,Increment    105: Step Time =    1.000,SHELL-1,1263,2.73905,-7.75,17.7886,ASSEMBLY_SHELL-1_ALLEL,TI,"shell < TI > < 5 section points > : SPOS, (fraction = 1.0)",134.433
C:/Users/srbb21/AppData/Local/Temp/rx18_gr30001521653382.841.odb,RELAX,Increment    105: Step Time =    1.000,SHELL-1,1264,2.73905,-7.25,17.7886,ASSEMBLY_SHELL-1_ALLEL,TI,"shell < TI > < 5 section points > : SPOS, (fraction = 1.0)",131.974
C:/Users/srbb21/AppData/Local/Temp/rx18_gr30001521653382.841.odb,RELAX,Increment    105: Step Time =    1.000,SHELL-1,1264,2.73905,-7.25,17.7886,ASSEMBLY_SHELL-1_ALLEL,TI,"shell < TI > < 5 section points > : SNEG, (fraction = -1.0)",115.769
C:/Users/srbb21/AppData/Local/Temp/rx18_gr30001521653382.841.odb,RELAX,Increment    105: Step Time =    1.000,SHELL-1,1265,2.73905,-6.75,17.7886,ASSEMBLY_SHELL-1_ALLEL,TI,"shell < TI > < 5 section points > : SPOS, (fraction = 1.0)",129.719
C:/Users/srbb21/AppData/Local/Temp/rx18_gr30001521653382.841.odb,RELAX,Increment    105: Step Time =    1.000,SHELL-1,1265,2.73905,-6.75,17.7886,ASSEMBLY_SHELL-1_ALLEL,TI,"shell < TI > < 5 section points > : SNEG, (fraction = -1.0)",118.49
C:/Users/srbb21/AppData/Local/Temp/rx18_gr30001521653382.841.odb,RELAX,Increment    105: Step Time =    1.000,SHELL-1,1266,2.73905,-6.25,17.7886,ASSEMBLY_SHELL-1_ALLEL,TI,"shell < TI > < 5 section points > : SPOS, (fraction = 1.0)",127.66
C:/Users/srbb21/AppData/Local/Temp/rx18_gr30001521653382.841.odb,RELAX,Increment    105: Step Time =    1.000,SHELL-1,1266,2.73905,-6.25,17.7886,ASSEMBLY_SHELL-1_ALLEL,TI,"shell < TI > < 5 section points > : SNEG, (fraction = -1.0)",120.94
C:/Users/srbb21/AppData/Local/Temp/rx18_gr30001521653382.841.odb,RELAX,Increment    105: Step Time =    1.000,SHELL-1,1267,2.73905,-5.75,17.7886,ASSEMBLY_SHELL-1_ALLEL,TI,"shell < TI > < 5 section points > : SNEG, (fraction = -1.0)",123.113
C:/Users/srbb21/AppData/Local/Temp/rx18_gr30001521653382.841.odb,RELAX,Increment    105: Step Time =    1.000,SHELL-1,1267,2.73905,-5.75,17.7886,ASSEMBLY_SHELL-1_ALLEL,TI,"shell < TI > < 5 section points > : SPOS, (fraction = 1.0)",125.791
C:/Users/srbb21/AppData/Local/Temp/rx18_gr30001521653382.841.odb,RELAX,Increment    105: Step Time =    1.000,SHELL-1,1268,2.73905,-5.25,17.7886,ASSEMBLY_SHELL-1_ALLEL,TI,"shell < TI > < 5 section points > : SPOS, (fraction = 1.0)",124.103
C:/Users/srbb21/AppData/Local/Temp/rx18_gr30001521653382.841.odb,RELAX,Increment    105: Step Time =    1.000,SHELL-1,1268,2.73905,-5.25,17.7886,ASSEMBLY_SHELL-1_ALLEL,TI,"shell < TI > < 5 section points > : SNEG, (fraction = -1.0)",125.002
C:/Users/srbb21/AppData/Local/Temp/rx18_gr30001521653382.841.odb,RELAX,Increment    105: Step Time =    1.000,SHELL-1,1269,2.73905,-4.75,17.7886,ASSEMBLY_SHELL-1_ALLEL,TI,"shell < TI > < 5 section points > : SPOS, (fraction = 1.0)",122.591
C:/Users/srbb21/AppData/Local/Temp/rx18_gr30001521653382.841.odb,RELAX,Increment    105: Step Time =    1.000,SHELL-1,1269,2.73905,-4.75,17.7886,ASSEMBLY_SHELL-1_ALLEL,TI,"shell < TI > < 5 section points > : SNEG, (fraction = -1.0)",126.616
C:/Users/srbb21/AppData/Local/Temp/rx18_gr30001521653382.841.odb,RELAX,Increment    105: Step Time =    1.000,SHELL-1,1270,2.73905,-4.25,17.7886,ASSEMBLY_SHELL-1_ALLEL,TI,"shell < TI > < 5 section points > : SPOS, (fraction = 1.0)",121.245
C:/Users/srbb21/AppData/Local/Temp/rx18_gr30001521653382.841.odb,RELAX,Increment    105: Step Time =    1.000,SHELL-1,1270,2.73905,-4.25,17.7886,ASSEMBLY_SHELL-1_ALLEL,TI,"shell < TI > < 5 section points > : SNEG, (fraction = -1.0)",127.965
C:/Users/srbb21/AppData/Local/Temp/rx18_gr30001521653382.841.odb,RELAX,Increment    105: Step Time =    1.000,SHELL-1,1271,2.73905,-3.75,17.7886,ASSEMBLY_SHELL-1_ALLEL,TI,"shell < TI > < 5 section points > : SPOS, (fraction = 1.0)",120.063
C:/Users/srbb21/AppData/Local/Temp/rx18_gr30001521653382.841.odb,RELAX,Increment    105: Step Time =    1.000,SHELL-1,1271,2.73905,-3.75,17.7886,ASSEMBLY_SHELL-1_ALLEL,TI,"shell < TI > < 5 section points > : SNEG, (fraction = -1.0)",129.071
C:/Users/srbb21/AppData/Local/Temp/rx18_gr30001521653382.841.odb,RELAX,Increment    105: Step Time =    1.000,SHELL-1,1272,2.73905,-3.25,17.7886,ASSEMBLY_SHELL-1_ALLEL,TI,"shell < TI > < 5 section points > : SNEG, (fraction = -1.0)",129.956
C:/Users/srbb21/AppData/Local/Temp/rx18_gr30001521653382.841.odb,RELAX,Increment    105: Step Time =    1.000,SHELL-1,1272,2.73905,-3.25,17.7886,ASSEMBLY_SHELL-1_ALLEL,TI,"shell < TI > < 5 section points > : SPOS, (fraction = 1.0)",119.038
C:/Users/srbb21/AppData/Local/Temp/rx18_gr30001521653382.841.odb,RELAX,Increment    105: Step Time =    1.000,SHELL-1,1273,2.73905,-2.75,17.7886,ASSEMBLY_SHELL-1_ALLEL,TI,"shell < TI > < 5 section points > : SPOS, (fraction = 1.0)",118.169
C:/Users/srbb21/AppData/Local/Temp/rx18_gr30001521653382.841.odb,RELAX,Increment    105: Step Time =    1.000,SHELL-1,1273,2.73905,-2.75,17.7886,ASSEMBLY_SHELL-1_ALLEL,TI,"shell < TI > < 5 section points > : SNEG, (fraction = -1.0)",130.649
C:/Users/srbb21/AppData/Local/Temp/rx18_gr30001521653382.841.odb,RELAX,Increment    105: Step Time =    1.000,SHELL-1,1274,2.73905,-2.25,17.7886,ASSEMBLY_SHELL-1_ALLEL,TI,"shell < TI > < 5 section points > : SPOS, (fraction = 1.0)",117.449
C:/Users/srbb21/AppData/Local/Temp/rx18_gr30001521653382.841.odb,RELAX,Increment    105: Step Time =    1.000,SHELL-1,1274,2.73905,-2.25,17.7886,ASSEMBLY_SHELL-1_ALLEL,TI,"shell < TI > < 5 section points > : SNEG, (fraction = -1.0)",131.175
C:/Users/srbb21/AppData/Local/Temp/rx18_gr30001521653382.841.odb,RELAX,Increment    105: Step Time =    1.000,SHELL-1,1275,2.73905,-1.75,17.7886,ASSEMBLY_SHELL-1_ALLEL,TI,"shell < TI > < 5 section points > : SPOS, (fraction = 1.0)",116.88
C:/Users/srbb21/AppData/Local/Temp/rx18_gr30001521653382.841.odb,RELAX,Increment    105: Step Time =    1.000,SHELL-1,1275,2.73905,-1.75,17.7886,ASSEMBLY_SHELL-1_ALLEL,TI,"shell < TI > < 5 section points > : SNEG, (fraction = -1.0)",131.562
C:/Users/srbb21/AppData/Local/Temp/rx18_gr30001521653382.841.odb,RELAX,Increment    105: Step Time =    1.000,SHELL-1,1276,2.73905,-1.25,17.7886,ASSEMBLY_SHELL-1_ALLEL,TI,"shell < TI > < 5 section points > : SNEG, (fraction = -1.0)",131.829
C:/Users/srbb21/AppData/Local/Temp/rx18_gr30001521653382.841.odb,RELAX,Increment    105: Step Time =    1.000,SHELL-1,1276,2.73905,-1.25,17.7886,ASSEMBLY_SHELL-1_ALLEL,TI,"shell < TI > < 5 section points > : SPOS, (fraction = 1.0)",116.455
C:/Users/srbb21/AppData/Local/Temp/rx18_gr30001521653382.841.odb,RELAX,Increment    105: Step Time =    1.000,SHELL-1,1277,2.73905,-0.75,17.7886,ASSEMBLY_SHELL-1_ALLEL,TI,"shell < TI > < 5 section points > : SPOS, (fraction = 1.0)",116.174
C:/Users/srbb21/AppData/Local/Temp/rx18_gr30001521653382.841.odb,RELAX,Increment    105: Step Time =    1.000,SHELL-1,1277,2.73905,-0.75,17.7886,ASSEMBLY_SHELL-1_ALLEL,TI,"shell < TI > < 5 section points > : SNEG, (fraction = -1.0)",131.999
C:/Users/srbb21/AppData/Local/Temp/rx18_gr30001521653382.841.odb,RELAX,Increment    105: Step Time =    1.000,SHELL-1,1278,2.73905,-0.25,17.7886,ASSEMBLY_SHELL-1_ALLEL,TI,"shell < TI > < 5 section points > : SPOS, (fraction = 1.0)",116.033
C:/Users/srbb21/AppData/Local/Temp/rx18_gr30001521653382.841.odb,RELAX,Increment    105: Step Time =    1.000,SHELL-1,1278,2.73905,-0.25,17.7886,ASSEMBLY_SHELL-1_ALLEL,TI,"shell < TI > < 5 section points > : SNEG, (fraction = -1.0)",132.079
C:/Users/srbb21/AppData/Local/Temp/rx18_gr30001521653382.841.odb,RELAX,Increment    105: Step Time =    1.000,SHELL-1,1279,2.73905,0.25,17.7886,ASSEMBLY_SHELL-1_ALLEL,TI,"shell < TI > < 5 section points > : SPOS, (fraction = 1.0)",116.033
C:/Users/srbb21/AppData/Local/Temp/rx18_gr30001521653382.841.odb,RELAX,Increment    105: Step Time =    1.000,SHELL-1,1279,2.73905,0.25,17.7886,ASSEMBLY_SHELL-1_ALLEL,TI,"shell < TI > < 5 section points > : SNEG, (fraction = -1.0)",132.079
C:/Users/srbb21/AppData/Local/Temp/rx18_gr30001521653382.841.odb,RELAX,Increment    105: Step Time =    1.000,SHELL-1,1280,2.73905,0.75,17.7886,ASSEMBLY_SHELL-1_ALLEL,TI,"shell < TI > < 5 section points > : SNEG, (fraction = -1.0)",131.999
C:/Users/srbb21/AppData/Local/Temp/rx18_gr30001521653382.841.odb,RELAX,Increment    105: Step Time =    1.000,SHELL-1,1280,2.73905,0.75,17.7886,ASSEMBLY_SHELL-1_ALLEL,TI,"shell < TI > < 5 section points > : SPOS, (fraction = 1.0)",116.174
C:/Users/srbb21/AppData/Local/Temp/rx18_gr30001521653382.841.odb,RELAX,Increment    105: Step Time =    1.000,SHELL-1,1281,2.73905,1.25,17.7886,ASSEMBLY_SHELL-1_ALLEL,TI,"shell < TI > < 5 section points > : SPOS, (fraction = 1.0)",116.455
C:/Users/srbb21/AppData/Local/Temp/rx18_gr30001521653382.841.odb,RELAX,Increment    105: Step Time =    1.000,SHELL-1,1281,2.73905,1.25,17.7886,ASSEMBLY_SHELL-1_ALLEL,TI,"shell < TI > < 5 section points > : SNEG, (fraction = -1.0)",131.829
C:/Users/srbb21/AppData/Local/Temp/rx18_gr30001521653382.841.odb,RELAX,Increment    105: Step Time =    1.000,SHELL-1,1282,2.73905,1.75,17.7886,ASSEMBLY_SHELL-1_ALLEL,TI,"shell < TI > < 5 section points > : SPOS, (fraction = 1.0)",116.88
C:/Users/srbb21/AppData/Local/Temp/rx18_gr30001521653382.841.odb,RELAX,Increment    105: Step Time =    1.000,SHELL-1,1282,2.73905,1.75,17.7886,ASSEMBLY_SHELL-1_ALLEL,TI,"shell < TI > < 5 section points > : SNEG, (fraction = -1.0)",131.562
C:/Users/srbb21/AppData/Local/Temp/rx18_gr30001521653382.841.odb,RELAX,Increment    105: Step Time =    1.000,SHELL-1,1283,2.73905,2.25,17.7886,ASSEMBLY_SHELL-1_ALLEL,TI,"shell < TI > < 5 section points > : SPOS, (fraction = 1.0)",117.449
C:/Users/srbb21/AppData/Local/Temp/rx18_gr30001521653382.841.odb,RELAX,Increment    105: Step Time =    1.000,SHELL-1,1283,2.73905,2.25,17.7886,ASSEMBLY_SHELL-1_ALLEL,TI,"shell < TI > < 5 section points > : SNEG, (fraction = -1.0)",131.175
C:/Users/srbb21/AppData/Local/Temp/rx18_gr30001521653382.841.odb,RELAX,Increment    105: Step Time =    1.000,SHELL-1,1284,2.73905,2.75,17.7886,ASSEMBLY_SHELL-1_ALLEL,TI,"shell < TI > < 5 section points > : SNEG, (fraction = -1.0)",130.649
C:/Users/srbb21/AppData/Local/Temp/rx18_gr30001521653382.841.odb,RELAX,Increment    105: Step Time =    1.000,SHELL-1,1284,2.73905,2.75,17.7886,ASSEMBLY_SHELL-1_ALLEL,TI,"shell < TI > < 5 section points > : SPOS, (fraction = 1.0)",118.169
C:/Users/srbb21/AppData/Local/Temp/rx18_gr30001521653382.841.odb,RELAX,Increment    105: Step Time =    1.000,SHELL-1,1285,2.73905,3.25,17.7886,ASSEMBLY_SHELL-1_ALLEL,TI,"shell < TI > < 5 section points > : SPOS, (fraction = 1.0)",119.038
C:/Users/srbb21/AppData/Local/Temp/rx18_gr30001521653382.841.odb,RELAX,Increment    105: Step Time =    1.000,SHELL-1,1285,2.73905,3.25,17.7886,ASSEMBLY_SHELL-1_ALLEL,TI,"shell < TI > < 5 section points > : SNEG, (fraction = -1.0)",129.956
C:/Users/srbb21/AppData/Local/Temp/rx18_gr30001521653382.841.odb,RELAX,Increment    105: Step Time =    1.000,SHELL-1,1286,2.73905,3.75,17.7886,ASSEMBLY_SHELL-1_ALLEL,TI,"shell < TI > < 5 section points > : SPOS, (fraction = 1.0)",120.063
C:/Users/srbb21/AppData/Local/Temp/rx18_gr30001521653382.841.odb,RELAX,Increment    105: Step Time =    1.000,SHELL-1,1286,2.73905,3.75,17.7886,ASSEMBLY_SHELL-1_ALLEL,TI,"shell < TI > < 5 section points > : SNEG, (fraction = -1.0)",129.071
C:/Users/srbb21/AppData/Local/Temp/rx18_gr30001521653382.841.odb,RELAX,Increment    105: Step Time =    1.000,SHELL-1,1287,2.73905,4.25,17.7886,ASSEMBLY_SHELL-1_ALLEL,TI,"shell < TI > < 5 section points > : SPOS, (fraction = 1.0)",121.245
C:/Users/srbb21/AppData/Local/Temp/rx18_gr30001521653382.841.odb,RELAX,Increment    105: Step Time =    1.000,SHELL-1,1287,2.73905,4.25,17.7886,ASSEMBLY_SHELL-1_ALLEL,TI,"shell < TI > < 5 section points > : SNEG, (fraction = -1.0)",127.965
C:/Users/srbb21/AppData/Local/Temp/rx18_gr30001521653382.841.odb,RELAX,Increment    105: Step Time =    1.000,SHELL-1,1288,2.73905,4.75,17.7886,ASSEMBLY_SHELL-1_ALLEL,TI,"shell < TI > < 5 section points > : SPOS, (fraction = 1.0)",122.591
C:/Users/srbb21/AppData/Local/Temp/rx18_gr30001521653382.841.odb,RELAX,Increment    105: Step Time =    1.000,SHELL-1,1288,2.73905,4.75,17.7886,ASSEMBLY_SHELL-1_ALLEL,TI,"shell < TI > < 5 section points > : SNEG, (fraction = -1.0)",126.616
C:/Users/srbb21/AppData/Local/Temp/rx18_gr30001521653382.841.odb,RELAX,Increment    105: Step Time =    1.000,SHELL-1,1289,2.73905,5.25,17.7886,ASSEMBLY_SHELL-1_ALLEL,TI,"shell < TI > < 5 section points > : SNEG, (fraction = -1.0)",125.002
C:/Users/srbb21/AppData/Local/Temp/rx18_gr30001521653382.841.odb,RELAX,Increment    105: Step Time =    1.000,SHELL-1,1289,2.73905,5.25,17.7886,ASSEMBLY_SHELL-1_ALLEL,TI,"shell < TI > < 5 section points > : SPOS, (fraction = 1.0)",124.103
C:/Users/srbb21/AppData/Local/Temp/rx18_gr30001521653382.841.odb,RELAX,Increment    105: Step Time =    1.000,SHELL-1,1290,2.73905,5.75,17.7886,ASSEMBLY_SHELL-1_ALLEL,TI,"shell < TI > < 5 section points > : SPOS, (fraction = 1.0)",125.791
C:/Users/srbb21/AppData/Local/Temp/rx18_gr30001521653382.841.odb,RELAX,Increment    105: Step Time =    1.000,SHELL-1,1290,2.73905,5.75,17.7886,ASSEMBLY_SHELL-1_ALLEL,TI,"shell < TI > < 5 section points > : SNEG, (fraction = -1.0)",123.113
C:/Users/srbb21/AppData/Local/Temp/rx18_gr30001521653382.841.odb,RELAX,Increment    105: Step Time =    1.000,SHELL-1,1291,2.73905,6.25,17.7886,ASSEMBLY_SHELL-1_ALLEL,TI,"shell < TI > < 5 section points > : SPOS, (fraction = 1.0)",127.66
C:/Users/srbb21/AppData/Local/Temp/rx18_gr30001521653382.841.odb,RELAX,Increment    105: Step Time =    1.000,SHELL-1,1291,2.73905,6.25,17.7886,ASSEMBLY_SHELL-1_ALLEL,TI,"shell < TI > < 5 section points > : SNEG, (fraction = -1.0)",120.94
C:/Users/srbb21/AppData/Local/Temp/rx18_gr30001521653382.841.odb,RELAX,Increment    105: Step Time =    1.000,SHELL-1,1292,2.73905,6.75,17.7886,ASSEMBLY_SHELL-1_ALLEL,TI,"shell < TI > < 5 section points > : SPOS, (fraction = 1.0)",129.719
C:/Users/srbb21/AppData/Local/Temp/rx18_gr30001521653382.841.odb,RELAX,Increment    105: Step Time =    1.000,SHELL-1,1292,2.73905,6.75,17.7886,ASSEMBLY_SHELL-1_ALLEL,TI,"shell < TI > < 5 section points > : SNEG, (fraction = -1.0)",118.49
C:/Users/srbb21/AppData/Local/Temp/rx18_gr30001521653382.841.odb,RELAX,Increment    105: Step Time =    1.000,SHELL-1,1293,2.73905,7.25,17.7886,ASSEMBLY_SHELL-1_ALLEL,TI,"shell < TI > < 5 section points > : SNEG, (fraction = -1.0)",115.769
C:/Users/srbb21/AppData/Local/Temp/rx18_gr30001521653382.841.odb,RELAX,Increment    105: Step Time =    1.000,SHELL-1,1293,2.73905,7.25,17.7886,ASSEMBLY_SHELL-1_ALLEL,TI,"shell < TI > < 5 section points > : SPOS, (fraction = 1.0)",131.974
C:/Users/srbb21/AppData/Local/Temp/rx18_gr30001521653382.841.odb,RELAX,Increment    105: Step Time =    1.000,SHELL-1,1294,2.73905,7.75,17.7886,ASSEMBLY_SHELL-1_ALLEL,TI,"shell < TI > < 5 section points > : SPOS, (fraction = 1.0)",134.433
C:/Users/srbb21/AppData/Local/Temp/rx18_gr30001521653382.841.odb,RELAX,Increment    105: Step Time =    1.000,SHELL-1,1294,2.73905,7.75,17.7886,ASSEMBLY_SHELL-1_ALLEL,TI,"shell < TI > < 5 section points > : SNEG, (fraction = -1.0)",112.797
C:/Users/srbb21/AppData/Local/Temp/rx18_gr30001521653382.841.odb,RELAX,Increment    105: Step Time =    1.000,SHELL-1,1295,2.73905,8.25,17.7886,ASSEMBLY_SHELL-1_ALLEL,TI,"shell < TI > < 5 section points > : SPOS, (fraction = 1.0)",137.096
C:/Users/srbb21/AppData/Local/Temp/rx18_gr30001521653382.841.odb,RELAX,Increment    105: Step Time =    1.000,SHELL-1,1295,2.73905,8.25,17.7886,ASSEMBLY_SHELL-1_ALLEL,TI,"shell < TI > < 5 section points > : SNEG, (fraction = -1.0)",109.591
C:/Users/srbb21/AppData/Local/Temp/rx18_gr30001521653382.841.odb,RELAX,Increment    105: Step Time =    1.000,SHELL-1,1296,2.73905,8.75,17.7886,ASSEMBLY_SHELL-1_ALLEL,TI,"shell < TI > < 5 section points > : SPOS, (fraction = 1.0)",139.969
C:/Users/srbb21/AppData/Local/Temp/rx18_gr30001521653382.841.odb,RELAX,Increment    105: Step Time =    1.000,SHELL-1,1296,2.73905,8.75,17.7886,ASSEMBLY_SHELL-1_ALLEL,TI,"shell < TI > < 5 section points > : SNEG, (fraction = -1.0)",106.179
C:/Users/srbb21/AppData/Local/Temp/rx18_gr30001521653382.841.odb,RELAX,Increment    105: Step Time =    1.000,SHELL-1,1297,3.23206,-8.75,17.7057,ASSEMBLY_SHELL-1_ALLEL,TI,"shell < TI > < 5 section points > : SNEG, (fraction = -1.0)",105.864
C:/Users/srbb21/AppData/Local/Temp/rx18_gr30001521653382.841.odb,RELAX,Increment    105: Step Time =    1.000,SHELL-1,1297,3.23206,-8.75,17.7057,ASSEMBLY_SHELL-1_ALLEL,TI,"shell < TI > < 5 section points > : SPOS, (fraction = 1.0)",139.982
C:/Users/srbb21/AppData/Local/Temp/rx18_gr30001521653382.841.odb,RELAX,Increment    105: Step Time =    1.000,SHELL-1,1298,3.23206,-8.25,17.7057,ASSEMBLY_SHELL-1_ALLEL,TI,"shell < TI > < 5 section points > : SPOS, (fraction = 1.0)",137.05
C:/Users/srbb21/AppData/Local/Temp/rx18_gr30001521653382.841.odb,RELAX,Increment    105: Step Time =    1.000,SHELL-1,1298,3.23206,-8.25,17.7057,ASSEMBLY_SHELL-1_ALLEL,TI,"shell < TI > < 5 section points > : SNEG, (fraction = -1.0)",109.371
C:/Users/srbb21/AppData/Local/Temp/rx18_gr30001521653382.841.odb,RELAX,Increment    105: Step Time =    1.000,SHELL-1,1299,3.23206,-7.75,17.7057,ASSEMBLY_SHELL-1_ALLEL,TI,"shell < TI > < 5 section points > : SPOS, (fraction = 1.0)",134.334
C:/Users/srbb21/AppData/Local/Temp/rx18_gr30001521653382.841.odb,RELAX,Increment    105: Step Time =    1.000,SHELL-1,1299,3.23206,-7.75,17.7057,ASSEMBLY_SHELL-1_ALLEL,TI,"shell < TI > < 5 section points > : SNEG, (fraction = -1.0)",112.665
C:/Users/srbb21/AppData/Local/Temp/rx18_gr30001521653382.841.odb,RELAX,Increment    105: Step Time =    1.000,SHELL-1,1300,3.23206,-7.25,17.7057,ASSEMBLY_SHELL-1_ALLEL,TI,"shell < TI > < 5 section points > : SPOS, (fraction = 1.0)",131.83
C:/Users/srbb21/AppData/Local/Temp/rx18_gr30001521653382.841.odb,RELAX,Increment    105: Step Time =    1.000,SHELL-1,1300,3.23206,-7.25,17.7057,ASSEMBLY_SHELL-1_ALLEL,TI,"shell < TI > < 5 section points > : SNEG, (fraction = -1.0)",115.717
C:/Users/srbb21/AppData/Local/Temp/rx18_gr30001521653382.841.odb,RELAX,Increment    105: Step Time =    1.000,SHELL-1,1301,3.23206,-6.75,17.7057,ASSEMBLY_SHELL-1_ALLEL,TI,"shell < TI > < 5 section points > : SNEG, (fraction = -1.0)",118.504
C:/Users/srbb21/AppData/Local/Temp/rx18_gr30001521653382.841.odb,RELAX,Increment    105: Step Time =    1.000,SHELL-1,1301,3.23206,-6.75,17.7057,ASSEMBLY_SHELL-1_ALLEL,TI,"shell < TI > < 5 section points > : SPOS, (fraction = 1.0)",129.539
C:/Users/srbb21/AppData/Local/Temp/rx18_gr30001521653382.841.odb,RELAX,Increment    105: Step Time =    1.000,SHELL-1,1302,3.23206,-6.25,17.7057,ASSEMBLY_SHELL-1_ALLEL,TI,"shell < TI > < 5 section points > : SPOS, (fraction = 1.0)",127.456
C:/Users/srbb21/AppData/Local/Temp/rx18_gr30001521653382.841.odb,RELAX,Increment    105: Step Time =    1.000,SHELL-1,1302,3.23206,-6.25,17.7057,ASSEMBLY_SHELL-1_ALLEL,TI,"shell < TI > < 5 section points > : SNEG, (fraction = -1.0)",121.005
C:/Users/srbb21/AppData/Local/Temp/rx18_gr30001521653382.841.odb,RELAX,Increment    105: Step Time =    1.000,SHELL-1,1303,3.23206,-5.75,17.7057,ASSEMBLY_SHELL-1_ALLEL,TI,"shell < TI > < 5 section points > : SPOS, (fraction = 1.0)",125.576
C:/Users/srbb21/AppData/Local/Temp/rx18_gr30001521653382.841.odb,RELAX,Increment    105: Step Time =    1.000,SHELL-1,1303,3.23206,-5.75,17.7057,ASSEMBLY_SHELL-1_ALLEL,TI,"shell < TI > < 5 section points > : SNEG, (fraction = -1.0)",123.208
C:/Users/srbb21/AppData/Local/Temp/rx18_gr30001521653382.841.odb,RELAX,Increment    105: Step Time =    1.000,SHELL-1,1304,3.23206,-5.25,17.7057,ASSEMBLY_SHELL-1_ALLEL,TI,"shell < TI > < 5 section points > : SPOS, (fraction = 1.0)",123.891
C:/Users/srbb21/AppData/Local/Temp/rx18_gr30001521653382.841.odb,RELAX,Increment    105: Step Time =    1.000,SHELL-1,1304,3.23206,-5.25,17.7057,ASSEMBLY_SHELL-1_ALLEL,TI,"shell < TI > < 5 section points > : SNEG, (fraction = -1.0)",125.112
C:/Users/srbb21/AppData/Local/Temp/rx18_gr30001521653382.841.odb,RELAX,Increment    105: Step Time =    1.000,SHELL-1,1305,3.23206,-4.75,17.7057,ASSEMBLY_SHELL-1_ALLEL,TI,"shell < TI > < 5 section points > : SPOS, (fraction = 1.0)",122.393
C:/Users/srbb21/AppData/Local/Temp/rx18_gr30001521653382.841.odb,RELAX,Increment    105: Step Time =    1.000,SHELL-1,1305,3.23206,-4.75,17.7057,ASSEMBLY_SHELL-1_ALLEL,TI,"shell < TI > < 5 section points > : SNEG, (fraction = -1.0)",126.721
C:/Users/srbb21/AppData/Local/Temp/rx18_gr30001521653382.841.odb,RELAX,Increment    105: Step Time =    1.000,SHELL-1,1306,3.23206,-4.25,17.7057,ASSEMBLY_SHELL-1_ALLEL,TI,"shell < TI > < 5 section points > : SNEG, (fraction = -1.0)",128.053
C:/Users/srbb21/AppData/Local/Temp/rx18_gr30001521653382.841.odb,RELAX,Increment    105: Step Time =    1.000,SHELL-1,1306,3.23206,-4.25,17.7057,ASSEMBLY_SHELL-1_ALLEL,TI,"shell < TI > < 5 section points > : SPOS, (fraction = 1.0)",121.077
C:/Users/srbb21/AppData/Local/Temp/rx18_gr30001521653382.841.odb,RELAX,Increment    105: Step Time =    1.000,SHELL-1,1307,3.23206,-3.75,17.7057,ASSEMBLY_SHELL-1_ALLEL,TI,"shell < TI > < 5 section points > : SPOS, (fraction = 1.0)",119.931
C:/Users/srbb21/AppData/Local/Temp/rx18_gr30001521653382.841.odb,RELAX,Increment    105: Step Time =    1.000,SHELL-1,1307,3.23206,-3.75,17.7057,ASSEMBLY_SHELL-1_ALLEL,TI,"shell < TI > < 5 section points > : SNEG, (fraction = -1.0)",129.129
C:/Users/srbb21/AppData/Local/Temp/rx18_gr30001521653382.841.odb,RELAX,Increment    105: Step Time =    1.000,SHELL-1,1308,3.23206,-3.25,17.7057,ASSEMBLY_SHELL-1_ALLEL,TI,"shell < TI > < 5 section points > : SPOS, (fraction = 1.0)",118.952
C:/Users/srbb21/AppData/Local/Temp/rx18_gr30001521653382.841.odb,RELAX,Increment    105: Step Time =    1.000,SHELL-1,1308,3.23206,-3.25,17.7057,ASSEMBLY_SHELL-1_ALLEL,TI,"shell < TI > < 5 section points > : SNEG, (fraction = -1.0)",129.978
C:/Users/srbb21/AppData/Local/Temp/rx18_gr30001521653382.841.odb,RELAX,Increment    105: Step Time =    1.000,SHELL-1,1309,3.23206,-2.75,17.7057,ASSEMBLY_SHELL-1_ALLEL,TI,"shell < TI > < 5 section points > : SPOS, (fraction = 1.0)",118.131
C:/Users/srbb21/AppData/Local/Temp/rx18_gr30001521653382.841.odb,RELAX,Increment    105: Step Time =    1.000,SHELL-1,1309,3.23206,-2.75,17.7057,ASSEMBLY_SHELL-1_ALLEL,TI,"shell < TI > < 5 section points > : SNEG, (fraction = -1.0)",130.631
C:/Users/srbb21/AppData/Local/Temp/rx18_gr30001521653382.841.odb,RELAX,Increment    105: Step Time =    1.000,SHELL-1,1310,3.23206,-2.25,17.7057,ASSEMBLY_SHELL-1_ALLEL,TI,"shell < TI > < 5 section points > : SNEG, (fraction = -1.0)",131.119
C:/Users/srbb21/AppData/Local/Temp/rx18_gr30001521653382.841.odb,RELAX,Increment    105: Step Time =    1.000,SHELL-1,1310,3.23206,-2.25,17.7057,ASSEMBLY_SHELL-1_ALLEL,TI,"shell < TI > < 5 section points > : SPOS, (fraction = 1.0)",117.461
C:/Users/srbb21/AppData/Local/Temp/rx18_gr30001521653382.841.odb,RELAX,Increment    105: Step Time =    1.000,SHELL-1,1311,3.23206,-1.75,17.7057,ASSEMBLY_SHELL-1_ALLEL,TI,"shell < TI > < 5 section points > : SPOS, (fraction = 1.0)",116.935
C:/Users/srbb21/AppData/Local/Temp/rx18_gr30001521653382.841.odb,RELAX,Increment    105: Step Time =    1.000,SHELL-1,1311,3.23206,-1.75,17.7057,ASSEMBLY_SHELL-1_ALLEL,TI,"shell < TI > < 5 section points > : SNEG, (fraction = -1.0)",131.469
C:/Users/srbb21/AppData/Local/Temp/rx18_gr30001521653382.841.odb,RELAX,Increment    105: Step Time =    1.000,SHELL-1,1312,3.23206,-1.25,17.7057,ASSEMBLY_SHELL-1_ALLEL,TI,"shell < TI > < 5 section points > : SPOS, (fraction = 1.0)",116.547
C:/Users/srbb21/AppData/Local/Temp/rx18_gr30001521653382.841.odb,RELAX,Increment    105: Step Time =    1.000,SHELL-1,1312,3.23206,-1.25,17.7057,ASSEMBLY_SHELL-1_ALLEL,TI,"shell < TI > < 5 section points > : SNEG, (fraction = -1.0)",131.709
C:/Users/srbb21/AppData/Local/Temp/rx18_gr30001521653382.841.odb,RELAX,Increment    105: Step Time =    1.000,SHELL-1,1313,3.23206,-0.75,17.7057,ASSEMBLY_SHELL-1_ALLEL,TI,"shell < TI > < 5 section points > : SPOS, (fraction = 1.0)",116.291
C:/Users/srbb21/AppData/Local/Temp/rx18_gr30001521653382.841.odb,RELAX,Increment    105: Step Time =    1.000,SHELL-1,1313,3.23206,-0.75,17.7057,ASSEMBLY_SHELL-1_ALLEL,TI,"shell < TI > < 5 section points > : SNEG, (fraction = -1.0)",131.857
C:/Users/srbb21/AppData/Local/Temp/rx18_gr30001521653382.841.odb,RELAX,Increment    105: Step Time =    1.000,SHELL-1,1314,3.23206,-0.25,17.7057,ASSEMBLY_SHELL-1_ALLEL,TI,"shell < TI > < 5 section points > : SNEG, (fraction = -1.0)",131.927
C:/Users/srbb21/AppData/Local/Temp/rx18_gr30001521653382.841.odb,RELAX,Increment    105: Step Time =    1.000,SHELL-1,1314,3.23206,-0.25,17.7057,ASSEMBLY_SHELL-1_ALLEL,TI,"shell < TI > < 5 section points > : SPOS, (fraction = 1.0)",116.165
C:/Users/srbb21/AppData/Local/Temp/rx18_gr30001521653382.841.odb,RELAX,Increment    105: Step Time =    1.000,SHELL-1,1315,3.23206,0.25,17.7057,ASSEMBLY_SHELL-1_ALLEL,TI,"shell < TI > < 5 section points > : SPOS, (fraction = 1.0)",116.165
C:/Users/srbb21/AppData/Local/Temp/rx18_gr30001521653382.841.odb,RELAX,Increment    105: Step Time =    1.000,SHELL-1,1315,3.23206,0.25,17.7057,ASSEMBLY_SHELL-1_ALLEL,TI,"shell < TI > < 5 section points > : SNEG, (fraction = -1.0)",131.927
C:/Users/srbb21/AppData/Local/Temp/rx18_gr30001521653382.841.odb,RELAX,Increment    105: Step Time =    1.000,SHELL-1,1316,3.23206,0.75,17.7057,ASSEMBLY_SHELL-1_ALLEL,TI,"shell < TI > < 5 section points > : SPOS, (fraction = 1.0)",116.291
C:/Users/srbb21/AppData/Local/Temp/rx18_gr30001521653382.841.odb,RELAX,Increment    105: Step Time =    1.000,SHELL-1,1316,3.23206,0.75,17.7057,ASSEMBLY_SHELL-1_ALLEL,TI,"shell < TI > < 5 section points > : SNEG, (fraction = -1.0)",131.857
C:/Users/srbb21/AppData/Local/Temp/rx18_gr30001521653382.841.odb,RELAX,Increment    105: Step Time =    1.000,SHELL-1,1317,3.23206,1.25,17.7057,ASSEMBLY_SHELL-1_ALLEL,TI,"shell < TI > < 5 section points > : SPOS, (fraction = 1.0)",116.547
C:/Users/srbb21/AppData/Local/Temp/rx18_gr30001521653382.841.odb,RELAX,Increment    105: Step Time =    1.000,SHELL-1,1317,3.23206,1.25,17.7057,ASSEMBLY_SHELL-1_ALLEL,TI,"shell < TI > < 5 section points > : SNEG, (fraction = -1.0)",131.709
C:/Users/srbb21/AppData/Local/Temp/rx18_gr30001521653382.841.odb,RELAX,Increment    105: Step Time =    1.000,SHELL-1,1318,3.23206,1.75,17.7057,ASSEMBLY_SHELL-1_ALLEL,TI,"shell < TI > < 5 section points > : SNEG, (fraction = -1.0)",131.469
C:/Users/srbb21/AppData/Local/Temp/rx18_gr30001521653382.841.odb,RELAX,Increment    105: Step Time =    1.000,SHELL-1,1318,3.23206,1.75,17.7057,ASSEMBLY_SHELL-1_ALLEL,TI,"shell < TI > < 5 section points > : SPOS, (fraction = 1.0)",116.935
C:/Users/srbb21/AppData/Local/Temp/rx18_gr30001521653382.841.odb,RELAX,Increment    105: Step Time =    1.000,SHELL-1,1319,3.23206,2.25,17.7057,ASSEMBLY_SHELL-1_ALLEL,TI,"shell < TI > < 5 section points > : SPOS, (fraction = 1.0)",117.461
C:/Users/srbb21/AppData/Local/Temp/rx18_gr30001521653382.841.odb,RELAX,Increment    105: Step Time =    1.000,SHELL-1,1319,3.23206,2.25,17.7057,ASSEMBLY_SHELL-1_ALLEL,TI,"shell < TI > < 5 section points > : SNEG, (fraction = -1.0)",131.119
C:/Users/srbb21/AppData/Local/Temp/rx18_gr30001521653382.841.odb,RELAX,Increment    105: Step Time =    1.000,SHELL-1,1320,3.23206,2.75,17.7057,ASSEMBLY_SHELL-1_ALLEL,TI,"shell < TI > < 5 section points > : SPOS, (fraction = 1.0)",118.131
C:/Users/srbb21/AppData/Local/Temp/rx18_gr30001521653382.841.odb,RELAX,Increment    105: Step Time =    1.000,SHELL-1,1320,3.23206,2.75,17.7057,ASSEMBLY_SHELL-1_ALLEL,TI,"shell < TI > < 5 section points > : SNEG, (fraction = -1.0)",130.631
C:/Users/srbb21/AppData/Local/Temp/rx18_gr30001521653382.841.odb,RELAX,Increment    105: Step Time =    1.000,SHELL-1,1321,3.23206,3.25,17.7057,ASSEMBLY_SHELL-1_ALLEL,TI,"shell < TI > < 5 section points > : SPOS, (fraction = 1.0)",118.952
C:/Users/srbb21/AppData/Local/Temp/rx18_gr30001521653382.841.odb,RELAX,Increment    105: Step Time =    1.000,SHELL-1,1321,3.23206,3.25,17.7057,ASSEMBLY_SHELL-1_ALLEL,TI,"shell < TI > < 5 section points > : SNEG, (fraction = -1.0)",129.978
C:/Users/srbb21/AppData/Local/Temp/rx18_gr30001521653382.841.odb,RELAX,Increment    105: Step Time =    1.000,SHELL-1,1322,3.23206,3.75,17.7057,ASSEMBLY_SHELL-1_ALLEL,TI,"shell < TI > < 5 section points > : SPOS, (fraction = 1.0)",119.931
C:/Users/srbb21/AppData/Local/Temp/rx18_gr30001521653382.841.odb,RELAX,Increment    105: Step Time =    1.000,SHELL-1,1322,3.23206,3.75,17.7057,ASSEMBLY_SHELL-1_ALLEL,TI,"shell < TI > < 5 section points > : SNEG, (fraction = -1.0)",129.129
C:/Users/srbb21/AppData/Local/Temp/rx18_gr30001521653382.841.odb,RELAX,Increment    105: Step Time =    1.000,SHELL-1,1323,3.23206,4.25,17.7057,ASSEMBLY_SHELL-1_ALLEL,TI,"shell < TI > < 5 section points > : SNEG, (fraction = -1.0)",128.053
C:/Users/srbb21/AppData/Local/Temp/rx18_gr30001521653382.841.odb,RELAX,Increment    105: Step Time =    1.000,SHELL-1,1323,3.23206,4.25,17.7057,ASSEMBLY_SHELL-1_ALLEL,TI,"shell < TI > < 5 section points > : SPOS, (fraction = 1.0)",121.077
C:/Users/srbb21/AppData/Local/Temp/rx18_gr30001521653382.841.odb,RELAX,Increment    105: Step Time =    1.000,SHELL-1,1324,3.23206,4.75,17.7057,ASSEMBLY_SHELL-1_ALLEL,TI,"shell < TI > < 5 section points > : SPOS, (fraction = 1.0)",122.393
C:/Users/srbb21/AppData/Local/Temp/rx18_gr30001521653382.841.odb,RELAX,Increment    105: Step Time =    1.000,SHELL-1,1324,3.23206,4.75,17.7057,ASSEMBLY_SHELL-1_ALLEL,TI,"shell < TI > < 5 section points > : SNEG, (fraction = -1.0)",126.721
C:/Users/srbb21/AppData/Local/Temp/rx18_gr30001521653382.841.odb,RELAX,Increment    105: Step Time =    1.000,SHELL-1,1325,3.23206,5.25,17.7057,ASSEMBLY_SHELL-1_ALLEL,TI,"shell < TI > < 5 section points > : SPOS, (fraction = 1.0)",123.891
C:/Users/srbb21/AppData/Local/Temp/rx18_gr30001521653382.841.odb,RELAX,Increment    105: Step Time =    1.000,SHELL-1,1325,3.23206,5.25,17.7057,ASSEMBLY_SHELL-1_ALLEL,TI,"shell < TI > < 5 section points > : SNEG, (fraction = -1.0)",125.112
C:/Users/srbb21/AppData/Local/Temp/rx18_gr30001521653382.841.odb,RELAX,Increment    105: Step Time =    1.000,SHELL-1,1326,3.23206,5.75,17.7057,ASSEMBLY_SHELL-1_ALLEL,TI,"shell < TI > < 5 section points > : SPOS, (fraction = 1.0)",125.576
C:/Users/srbb21/AppData/Local/Temp/rx18_gr30001521653382.841.odb,RELAX,Increment    105: Step Time =    1.000,SHELL-1,1326,3.23206,5.75,17.7057,ASSEMBLY_SHELL-1_ALLEL,TI,"shell < TI > < 5 section points > : SNEG, (fraction = -1.0)",123.208
C:/Users/srbb21/AppData/Local/Temp/rx18_gr30001521653382.841.odb,RELAX,Increment    105: Step Time =    1.000,SHELL-1,1327,3.23206,6.25,17.7057,ASSEMBLY_SHELL-1_ALLEL,TI,"shell < TI > < 5 section points > : SNEG, (fraction = -1.0)",121.005
C:/Users/srbb21/AppData/Local/Temp/rx18_gr30001521653382.841.odb,RELAX,Increment    105: Step Time =    1.000,SHELL-1,1327,3.23206,6.25,17.7057,ASSEMBLY_SHELL-1_ALLEL,TI,"shell < TI > < 5 section points > : SPOS, (fraction = 1.0)",127.456
C:/Users/srbb21/AppData/Local/Temp/rx18_gr30001521653382.841.odb,RELAX,Increment    105: Step Time =    1.000,SHELL-1,1328,3.23206,6.75,17.7057,ASSEMBLY_SHELL-1_ALLEL,TI,"shell < TI > < 5 section points > : SPOS, (fraction = 1.0)",129.539
C:/Users/srbb21/AppData/Local/Temp/rx18_gr30001521653382.841.odb,RELAX,Increment    105: Step Time =    1.000,SHELL-1,1328,3.23206,6.75,17.7057,ASSEMBLY_SHELL-1_ALLEL,TI,"shell < TI > < 5 section points > : SNEG, (fraction = -1.0)",118.504
C:/Users/srbb21/AppData/Local/Temp/rx18_gr30001521653382.841.odb,RELAX,Increment    105: Step Time =    1.000,SHELL-1,1329,3.23206,7.25,17.7057,ASSEMBLY_SHELL-1_ALLEL,TI,"shell < TI > < 5 section points > : SPOS, (fraction = 1.0)",131.83
C:/Users/srbb21/AppData/Local/Temp/rx18_gr30001521653382.841.odb,RELAX,Increment    105: Step Time =    1.000,SHELL-1,1329,3.23206,7.25,17.7057,ASSEMBLY_SHELL-1_ALLEL,TI,"shell < TI > < 5 section points > : SNEG, (fraction = -1.0)",115.717
C:/Users/srbb21/AppData/Local/Temp/rx18_gr30001521653382.841.odb,RELAX,Increment    105: Step Time =    1.000,SHELL-1,1330,3.23206,7.75,17.7057,ASSEMBLY_SHELL-1_ALLEL,TI,"shell < TI > < 5 section points > : SPOS, (fraction = 1.0)",134.334
C:/Users/srbb21/AppData/Local/Temp/rx18_gr30001521653382.841.odb,RELAX,Increment    105: Step Time =    1.000,SHELL-1,1330,3.23206,7.75,17.7057,ASSEMBLY_SHELL-1_ALLEL,TI,"shell < TI > < 5 section points > : SNEG, (fraction = -1.0)",112.665
C:/Users/srbb21/AppData/Local/Temp/rx18_gr30001521653382.841.odb,RELAX,Increment    105: Step Time =    1.000,SHELL-1,1331,3.23206,8.25,17.7057,ASSEMBLY_SHELL-1_ALLEL,TI,"shell < TI > < 5 section points > : SNEG, (fraction = -1.0)",109.371
C:/Users/srbb21/AppData/Local/Temp/rx18_gr30001521653382.841.odb,RELAX,Increment    105: Step Time =    1.000,SHELL-1,1331,3.23206,8.25,17.7057,ASSEMBLY_SHELL-1_ALLEL,TI,"shell < TI > < 5 section points > : SPOS, (fraction = 1.0)",137.05
C:/Users/srbb21/AppData/Local/Temp/rx18_gr30001521653382.841.odb,RELAX,Increment    105: Step Time =    1.000,SHELL-1,1332,3.23206,8.75,17.7057,ASSEMBLY_SHELL-1_ALLEL,TI,"shell < TI > < 5 section points > : SPOS, (fraction = 1.0)",139.982
C:/Users/srbb21/AppData/Local/Temp/rx18_gr30001521653382.841.odb,RELAX,Increment    105: Step Time =    1.000,SHELL-1,1332,3.23206,8.75,17.7057,ASSEMBLY_SHELL-1_ALLEL,TI,"shell < TI > < 5 section points > : SNEG, (fraction = -1.0)",105.864
C:/Users/srbb21/AppData/Local/Temp/rx18_gr30001521653382.841.odb,RELAX,Increment    105: Step Time =    1.000,SHELL-1,1333,3.72257,-8.75,17.6091,ASSEMBLY_SHELL-1_ALLEL,TI,"shell < TI > < 5 section points > : SPOS, (fraction = 1.0)",140.012
C:/Users/srbb21/AppData/Local/Temp/rx18_gr30001521653382.841.odb,RELAX,Increment    105: Step Time =    1.000,SHELL-1,1333,3.72257,-8.75,17.6091,ASSEMBLY_SHELL-1_ALLEL,TI,"shell < TI > < 5 section points > : SNEG, (fraction = -1.0)",105.489
C:/Users/srbb21/AppData/Local/Temp/rx18_gr30001521653382.841.odb,RELAX,Increment    105: Step Time =    1.000,SHELL-1,1334,3.72257,-8.25,17.6091,ASSEMBLY_SHELL-1_ALLEL,TI,"shell < TI > < 5 section points > : SPOS, (fraction = 1.0)",137.008
C:/Users/srbb21/AppData/Local/Temp/rx18_gr30001521653382.841.odb,RELAX,Increment    105: Step Time =    1.000,SHELL-1,1334,3.72257,-8.25,17.6091,ASSEMBLY_SHELL-1_ALLEL,TI,"shell < TI > < 5 section points > : SNEG, (fraction = -1.0)",109.108
C:/Users/srbb21/AppData/Local/Temp/rx18_gr30001521653382.841.odb,RELAX,Increment    105: Step Time =    1.000,SHELL-1,1335,3.72257,-7.75,17.6091,ASSEMBLY_SHELL-1_ALLEL,TI,"shell < TI > < 5 section points > : SNEG, (fraction = -1.0)",112.512
C:/Users/srbb21/AppData/Local/Temp/rx18_gr30001521653382.841.odb,RELAX,Increment    105: Step Time =    1.000,SHELL-1,1335,3.72257,-7.75,17.6091,ASSEMBLY_SHELL-1_ALLEL,TI,"shell < TI > < 5 section points > : SPOS, (fraction = 1.0)",134.225
C:/Users/srbb21/AppData/Local/Temp/rx18_gr30001521653382.841.odb,RELAX,Increment    105: Step Time =    1.000,SHELL-1,1336,3.72257,-7.25,17.6091,ASSEMBLY_SHELL-1_ALLEL,TI,"shell < TI > < 5 section points > : SPOS, (fraction = 1.0)",131.661
C:/Users/srbb21/AppData/Local/Temp/rx18_gr30001521653382.841.odb,RELAX,Increment    105: Step Time =    1.000,SHELL-1,1336,3.72257,-7.25,17.6091,ASSEMBLY_SHELL-1_ALLEL,TI,"shell < TI > < 5 section points > : SNEG, (fraction = -1.0)",115.663
C:/Users/srbb21/AppData/Local/Temp/rx18_gr30001521653382.841.odb,RELAX,Increment    105: Step Time =    1.000,SHELL-1,1337,3.72257,-6.75,17.6091,ASSEMBLY_SHELL-1_ALLEL,TI,"shell < TI > < 5 section points > : SPOS, (fraction = 1.0)",129.324
C:/Users/srbb21/AppData/Local/Temp/rx18_gr30001521653382.841.odb,RELAX,Increment    105: Step Time =    1.000,SHELL-1,1337,3.72257,-6.75,17.6091,ASSEMBLY_SHELL-1_ALLEL,TI,"shell < TI > < 5 section points > : SNEG, (fraction = -1.0)",118.534
C:/Users/srbb21/AppData/Local/Temp/rx18_gr30001521653382.841.odb,RELAX,Increment    105: Step Time =    1.000,SHELL-1,1338,3.72257,-6.25,17.6091,ASSEMBLY_SHELL-1_ALLEL,TI,"shell < TI > < 5 section points > : SPOS, (fraction = 1.0)",127.209
C:/Users/srbb21/AppData/Local/Temp/rx18_gr30001521653382.841.odb,RELAX,Increment    105: Step Time =    1.000,SHELL-1,1338,3.72257,-6.25,17.6091,ASSEMBLY_SHELL-1_ALLEL,TI,"shell < TI > < 5 section points > : SNEG, (fraction = -1.0)",121.097
C:/Users/srbb21/AppData/Local/Temp/rx18_gr30001521653382.841.odb,RELAX,Increment    105: Step Time =    1.000,SHELL-1,1339,3.72257,-5.75,17.6091,ASSEMBLY_SHELL-1_ALLEL,TI,"shell < TI > < 5 section points > : SNEG, (fraction = -1.0)",123.341
C:/Users/srbb21/AppData/Local/Temp/rx18_gr30001521653382.841.odb,RELAX,Increment    105: Step Time =    1.000,SHELL-1,1339,3.72257,-5.75,17.6091,ASSEMBLY_SHELL-1_ALLEL,TI,"shell < TI > < 5 section points > : SPOS, (fraction = 1.0)",125.315
C:/Users/srbb21/AppData/Local/Temp/rx18_gr30001521653382.841.odb,RELAX,Increment    105: Step Time =    1.000,SHELL-1,1340,3.72257,-5.25,17.6091,ASSEMBLY_SHELL-1_ALLEL,TI,"shell < TI > < 5 section points > : SPOS, (fraction = 1.0)",123.634
C:/Users/srbb21/AppData/Local/Temp/rx18_gr30001521653382.841.odb,RELAX,Increment    105: Step Time =    1.000,SHELL-1,1340,3.72257,-5.25,17.6091,ASSEMBLY_SHELL-1_ALLEL,TI,"shell < TI > < 5 section points > : SNEG, (fraction = -1.0)",125.261
C:/Users/srbb21/AppData/Local/Temp/rx18_gr30001521653382.841.odb,RELAX,Increment    105: Step Time =    1.000,SHELL-1,1341,3.72257,-4.75,17.6091,ASSEMBLY_SHELL-1_ALLEL,TI,"shell < TI > < 5 section points > : SPOS, (fraction = 1.0)",122.158
C:/Users/srbb21/AppData/Local/Temp/rx18_gr30001521653382.841.odb,RELAX,Increment    105: Step Time =    1.000,SHELL-1,1341,3.72257,-4.75,17.6091,ASSEMBLY_SHELL-1_ALLEL,TI,"shell < TI > < 5 section points > : SNEG, (fraction = -1.0)",126.867
C:/Users/srbb21/AppData/Local/Temp/rx18_gr30001521653382.841.odb,RELAX,Increment    105: Step Time =    1.000,SHELL-1,1342,3.72257,-4.25,17.6091,ASSEMBLY_SHELL-1_ALLEL,TI,"shell < TI > < 5 section points > : SPOS, (fraction = 1.0)",120.877
C:/Users/srbb21/AppData/Local/Temp/rx18_gr30001521653382.841.odb,RELAX,Increment    105: Step Time =    1.000,SHELL-1,1342,3.72257,-4.25,17.6091,ASSEMBLY_SHELL-1_ALLEL,TI,"shell < TI > < 5 section points > : SNEG, (fraction = -1.0)",128.177
C:/Users/srbb21/AppData/Local/Temp/rx18_gr30001521653382.841.odb,RELAX,Increment    105: Step Time =    1.000,SHELL-1,1343,3.72257,-3.75,17.6091,ASSEMBLY_SHELL-1_ALLEL,TI,"shell < TI > < 5 section points > : SNEG, (fraction = -1.0)",129.22
C:/Users/srbb21/AppData/Local/Temp/rx18_gr30001521653382.841.odb,RELAX,Increment    105: Step Time =    1.000,SHELL-1,1343,3.72257,-3.75,17.6091,ASSEMBLY_SHELL-1_ALLEL,TI,"shell < TI > < 5 section points > : SPOS, (fraction = 1.0)",119.781
C:/Users/srbb21/AppData/Local/Temp/rx18_gr30001521653382.841.odb,RELAX,Increment    105: Step Time =    1.000,SHELL-1,1344,3.72257,-3.25,17.6091,ASSEMBLY_SHELL-1_ALLEL,TI,"shell < TI > < 5 section points > : SPOS, (fraction = 1.0)",118.858
C:/Users/srbb21/AppData/Local/Temp/rx18_gr30001521653382.841.odb,RELAX,Increment    105: Step Time =    1.000,SHELL-1,1344,3.72257,-3.25,17.6091,ASSEMBLY_SHELL-1_ALLEL,TI,"shell < TI > < 5 section points > : SNEG, (fraction = -1.0)",130.026
C:/Users/srbb21/AppData/Local/Temp/rx18_gr30001521653382.841.odb,RELAX,Increment    105: Step Time =    1.000,SHELL-1,1345,3.72257,-2.75,17.6091,ASSEMBLY_SHELL-1_ALLEL,TI,"shell < TI > < 5 section points > : SPOS, (fraction = 1.0)",118.099
C:/Users/srbb21/AppData/Local/Temp/rx18_gr30001521653382.841.odb,RELAX,Increment    105: Step Time =    1.000,SHELL-1,1345,3.72257,-2.75,17.6091,ASSEMBLY_SHELL-1_ALLEL,TI,"shell < TI > < 5 section points > : SNEG, (fraction = -1.0)",130.634
C:/Users/srbb21/AppData/Local/Temp/rx18_gr30001521653382.841.odb,RELAX,Increment    105: Step Time =    1.000,SHELL-1,1346,3.72257,-2.25,17.6091,ASSEMBLY_SHELL-1_ALLEL,TI,"shell < TI > < 5 section points > : SPOS, (fraction = 1.0)",117.489
C:/Users/srbb21/AppData/Local/Temp/rx18_gr30001521653382.841.odb,RELAX,Increment    105: Step Time =    1.000,SHELL-1,1346,3.72257,-2.25,17.6091,ASSEMBLY_SHELL-1_ALLEL,TI,"shell < TI > < 5 section points > : SNEG, (fraction = -1.0)",131.076
C:/Users/srbb21/AppData/Local/Temp/rx18_gr30001521653382.841.odb,RELAX,Increment    105: Step Time =    1.000,SHELL-1,1347,3.72257,-1.75,17.6091,ASSEMBLY_SHELL-1_ALLEL,TI,"shell < TI > < 5 section points > : SNEG, (fraction = -1.0)",131.387
C:/Users/srbb21/AppData/Local/Temp/rx18_gr30001521653382.841.odb,RELAX,Increment    105: Step Time =    1.000,SHELL-1,1347,3.72257,-1.75,17.6091,ASSEMBLY_SHELL-1_ALLEL,TI,"shell < TI > < 5 section points > : SPOS, (fraction = 1.0)",117.019
C:/Users/srbb21/AppData/Local/Temp/rx18_gr30001521653382.841.odb,RELAX,Increment    105: Step Time =    1.000,SHELL-1,1348,3.72257,-1.25,17.6091,ASSEMBLY_SHELL-1_ALLEL,TI,"shell < TI > < 5 section points > : SPOS, (fraction = 1.0)",116.677
C:/Users/srbb21/AppData/Local/Temp/rx18_gr30001521653382.841.odb,RELAX,Increment    105: Step Time =    1.000,SHELL-1,1348,3.72257,-1.25,17.6091,ASSEMBLY_SHELL-1_ALLEL,TI,"shell < TI > < 5 section points > : SNEG, (fraction = -1.0)",131.593
C:/Users/srbb21/AppData/Local/Temp/rx18_gr30001521653382.841.odb,RELAX,Increment    105: Step Time =    1.000,SHELL-1,1349,3.72257,-0.75,17.6091,ASSEMBLY_SHELL-1_ALLEL,TI,"shell < TI > < 5 section points > : SPOS, (fraction = 1.0)",116.454
C:/Users/srbb21/AppData/Local/Temp/rx18_gr30001521653382.841.odb,RELAX,Increment    105: Step Time =    1.000,SHELL-1,1349,3.72257,-0.75,17.6091,ASSEMBLY_SHELL-1_ALLEL,TI,"shell < TI > < 5 section points > : SNEG, (fraction = -1.0)",131.718
C:/Users/srbb21/AppData/Local/Temp/rx18_gr30001521653382.841.odb,RELAX,Increment    105: Step Time =    1.000,SHELL-1,1350,3.72257,-0.25,17.6091,ASSEMBLY_SHELL-1_ALLEL,TI,"shell < TI > < 5 section points > : SPOS, (fraction = 1.0)",116.345
C:/Users/srbb21/AppData/Local/Temp/rx18_gr30001521653382.841.odb,RELAX,Increment    105: Step Time =    1.000,SHELL-1,1350,3.72257,-0.25,17.6091,ASSEMBLY_SHELL-1_ALLEL,TI,"shell < TI > < 5 section points > : SNEG, (fraction = -1.0)",131.777
C:/Users/srbb21/AppData/Local/Temp/rx18_gr30001521653382.841.odb,RELAX,Increment    105: Step Time =    1.000,SHELL-1,1351,3.72257,0.25,17.6091,ASSEMBLY_SHELL-1_ALLEL,TI,"shell < TI > < 5 section points > : SNEG, (fraction = -1.0)",131.777
C:/Users/srbb21/AppData/Local/Temp/rx18_gr30001521653382.841.odb,RELAX,Increment    105: Step Time =    1.000,SHELL-1,1351,3.72257,0.25,17.6091,ASSEMBLY_SHELL-1_ALLEL,TI,"shell < TI > < 5 section points > : SPOS, (fraction = 1.0)",116.345
C:/Users/srbb21/AppData/Local/Temp/rx18_gr30001521653382.841.odb,RELAX,Increment    105: Step Time =    1.000,SHELL-1,1352,3.72257,0.75,17.6091,ASSEMBLY_SHELL-1_ALLEL,TI,"shell < TI > < 5 section points > : SPOS, (fraction = 1.0)",116.454
C:/Users/srbb21/AppData/Local/Temp/rx18_gr30001521653382.841.odb,RELAX,Increment    105: Step Time =    1.000,SHELL-1,1352,3.72257,0.75,17.6091,ASSEMBLY_SHELL-1_ALLEL,TI,"shell < TI > < 5 section points > : SNEG, (fraction = -1.0)",131.718
C:/Users/srbb21/AppData/Local/Temp/rx18_gr30001521653382.841.odb,RELAX,Increment    105: Step Time =    1.000,SHELL-1,1353,3.72257,1.25,17.6091,ASSEMBLY_SHELL-1_ALLEL,TI,"shell < TI > < 5 section points > : SPOS, (fraction = 1.0)",116.677
C:/Users/srbb21/AppData/Local/Temp/rx18_gr30001521653382.841.odb,RELAX,Increment    105: Step Time =    1.000,SHELL-1,1353,3.72257,1.25,17.6091,ASSEMBLY_SHELL-1_ALLEL,TI,"shell < TI > < 5 section points > : SNEG, (fraction = -1.0)",131.593
C:/Users/srbb21/AppData/Local/Temp/rx18_gr30001521653382.841.odb,RELAX,Increment    105: Step Time =    1.000,SHELL-1,1354,3.72257,1.75,17.6091,ASSEMBLY_SHELL-1_ALLEL,TI,"shell < TI > < 5 section points > : SPOS, (fraction = 1.0)",117.019
C:/Users/srbb21/AppData/Local/Temp/rx18_gr30001521653382.841.odb,RELAX,Increment    105: Step Time =    1.000,SHELL-1,1354,3.72257,1.75,17.6091,ASSEMBLY_SHELL-1_ALLEL,TI,"shell < TI > < 5 section points > : SNEG, (fraction = -1.0)",131.387
C:/Users/srbb21/AppData/Local/Temp/rx18_gr30001521653382.841.odb,RELAX,Increment    105: Step Time =    1.000,SHELL-1,1355,3.72257,2.25,17.6091,ASSEMBLY_SHELL-1_ALLEL,TI,"shell < TI > < 5 section points > : SPOS, (fraction = 1.0)",117.489
C:/Users/srbb21/AppData/Local/Temp/rx18_gr30001521653382.841.odb,RELAX,Increment    105: Step Time =    1.000,SHELL-1,1355,3.72257,2.25,17.6091,ASSEMBLY_SHELL-1_ALLEL,TI,"shell < TI > < 5 section points > : SNEG, (fraction = -1.0)",131.076
C:/Users/srbb21/AppData/Local/Temp/rx18_gr30001521653382.841.odb,RELAX,Increment    105: Step Time =    1.000,SHELL-1,1356,3.72257,2.75,17.6091,ASSEMBLY_SHELL-1_ALLEL,TI,"shell < TI > < 5 section points > : SNEG, (fraction = -1.0)",130.634
C:/Users/srbb21/AppData/Local/Temp/rx18_gr30001521653382.841.odb,RELAX,Increment    105: Step Time =    1.000,SHELL-1,1356,3.72257,2.75,17.6091,ASSEMBLY_SHELL-1_ALLEL,TI,"shell < TI > < 5 section points > : SPOS, (fraction = 1.0)",118.099
C:/Users/srbb21/AppData/Local/Temp/rx18_gr30001521653382.841.odb,RELAX,Increment    105: Step Time =    1.000,SHELL-1,1357,3.72257,3.25,17.6091,ASSEMBLY_SHELL-1_ALLEL,TI,"shell < TI > < 5 section points > : SPOS, (fraction = 1.0)",118.858
C:/Users/srbb21/AppData/Local/Temp/rx18_gr30001521653382.841.odb,RELAX,Increment    105: Step Time =    1.000,SHELL-1,1357,3.72257,3.25,17.6091,ASSEMBLY_SHELL-1_ALLEL,TI,"shell < TI > < 5 section points > : SNEG, (fraction = -1.0)",130.026
C:/Users/srbb21/AppData/Local/Temp/rx18_gr30001521653382.841.odb,RELAX,Increment    105: Step Time =    1.000,SHELL-1,1358,3.72257,3.75,17.6091,ASSEMBLY_SHELL-1_ALLEL,TI,"shell < TI > < 5 section points > : SPOS, (fraction = 1.0)",119.781
C:/Users/srbb21/AppData/Local/Temp/rx18_gr30001521653382.841.odb,RELAX,Increment    105: Step Time =    1.000,SHELL-1,1358,3.72257,3.75,17.6091,ASSEMBLY_SHELL-1_ALLEL,TI,"shell < TI > < 5 section points > : SNEG, (fraction = -1.0)",129.22
C:/Users/srbb21/AppData/Local/Temp/rx18_gr30001521653382.841.odb,RELAX,Increment    105: Step Time =    1.000,SHELL-1,1359,3.72257,4.25,17.6091,ASSEMBLY_SHELL-1_ALLEL,TI,"shell < TI > < 5 section points > : SPOS, (fraction = 1.0)",120.877
C:/Users/srbb21/AppData/Local/Temp/rx18_gr30001521653382.841.odb,RELAX,Increment    105: Step Time =    1.000,SHELL-1,1359,3.72257,4.25,17.6091,ASSEMBLY_SHELL-1_ALLEL,TI,"shell < TI > < 5 section points > : SNEG, (fraction = -1.0)",128.177
C:/Users/srbb21/AppData/Local/Temp/rx18_gr30001521653382.841.odb,RELAX,Increment    105: Step Time =    1.000,SHELL-1,1360,3.72257,4.75,17.6091,ASSEMBLY_SHELL-1_ALLEL,TI,"shell < TI > < 5 section points > : SNEG, (fraction = -1.0)",126.867
C:/Users/srbb21/AppData/Local/Temp/rx18_gr30001521653382.841.odb,RELAX,Increment    105: Step Time =    1.000,SHELL-1,1360,3.72257,4.75,17.6091,ASSEMBLY_SHELL-1_ALLEL,TI,"shell < TI > < 5 section points > : SPOS, (fraction = 1.0)",122.158
C:/Users/srbb21/AppData/Local/Temp/rx18_gr30001521653382.841.odb,RELAX,Increment    105: Step Time =    1.000,SHELL-1,1361,3.72257,5.25,17.6091,ASSEMBLY_SHELL-1_ALLEL,TI,"shell < TI > < 5 section points > : SPOS, (fraction = 1.0)",123.634
C:/Users/srbb21/AppData/Local/Temp/rx18_gr30001521653382.841.odb,RELAX,Increment    105: Step Time =    1.000,SHELL-1,1361,3.72257,5.25,17.6091,ASSEMBLY_SHELL-1_ALLEL,TI,"shell < TI > < 5 section points > : SNEG, (fraction = -1.0)",125.261
C:/Users/srbb21/AppData/Local/Temp/rx18_gr30001521653382.841.odb,RELAX,Increment    105: Step Time =    1.000,SHELL-1,1362,3.72257,5.75,17.6091,ASSEMBLY_SHELL-1_ALLEL,TI,"shell < TI > < 5 section points > : SPOS, (fraction = 1.0)",125.315
C:/Users/srbb21/AppData/Local/Temp/rx18_gr30001521653382.841.odb,RELAX,Increment    105: Step Time =    1.000,SHELL-1,1362,3.72257,5.75,17.6091,ASSEMBLY_SHELL-1_ALLEL,TI,"shell < TI > < 5 section points > : SNEG, (fraction = -1.0)",123.341
C:/Users/srbb21/AppData/Local/Temp/rx18_gr30001521653382.841.odb,RELAX,Increment    105: Step Time =    1.000,SHELL-1,1363,3.72257,6.25,17.6091,ASSEMBLY_SHELL-1_ALLEL,TI,"shell < TI > < 5 section points > : SPOS, (fraction = 1.0)",127.209
C:/Users/srbb21/AppData/Local/Temp/rx18_gr30001521653382.841.odb,RELAX,Increment    105: Step Time =    1.000,SHELL-1,1363,3.72257,6.25,17.6091,ASSEMBLY_SHELL-1_ALLEL,TI,"shell < TI > < 5 section points > : SNEG, (fraction = -1.0)",121.097
C:/Users/srbb21/AppData/Local/Temp/rx18_gr30001521653382.841.odb,RELAX,Increment    105: Step Time =    1.000,SHELL-1,1364,3.72257,6.75,17.6091,ASSEMBLY_SHELL-1_ALLEL,TI,"shell < TI > < 5 section points > : SNEG, (fraction = -1.0)",118.534
C:/Users/srbb21/AppData/Local/Temp/rx18_gr30001521653382.841.odb,RELAX,Increment    105: Step Time =    1.000,SHELL-1,1364,3.72257,6.75,17.6091,ASSEMBLY_SHELL-1_ALLEL,TI,"shell < TI > < 5 section points > : SPOS, (fraction = 1.0)",129.324
C:/Users/srbb21/AppData/Local/Temp/rx18_gr30001521653382.841.odb,RELAX,Increment    105: Step Time =    1.000,SHELL-1,1365,3.72257,7.25,17.6091,ASSEMBLY_SHELL-1_ALLEL,TI,"shell < TI > < 5 section points > : SPOS, (fraction = 1.0)",131.661
C:/Users/srbb21/AppData/Local/Temp/rx18_gr30001521653382.841.odb,RELAX,Increment    105: Step Time =    1.000,SHELL-1,1365,3.72257,7.25,17.6091,ASSEMBLY_SHELL-1_ALLEL,TI,"shell < TI > < 5 section points > : SNEG, (fraction = -1.0)",115.663
C:/Users/srbb21/AppData/Local/Temp/rx18_gr30001521653382.841.odb,RELAX,Increment    105: Step Time =    1.000,SHELL-1,1366,3.72257,7.75,17.6091,ASSEMBLY_SHELL-1_ALLEL,TI,"shell < TI > < 5 section points > : SPOS, (fraction = 1.0)",134.225
C:/Users/srbb21/AppData/Local/Temp/rx18_gr30001521653382.841.odb,RELAX,Increment    105: Step Time =    1.000,SHELL-1,1366,3.72257,7.75,17.6091,ASSEMBLY_SHELL-1_ALLEL,TI,"shell < TI > < 5 section points > : SNEG, (fraction = -1.0)",112.512
C:/Users/srbb21/AppData/Local/Temp/rx18_gr30001521653382.841.odb,RELAX,Increment    105: Step Time =    1.000,SHELL-1,1367,3.72257,8.25,17.6091,ASSEMBLY_SHELL-1_ALLEL,TI,"shell < TI > < 5 section points > : SPOS, (fraction = 1.0)",137.008
C:/Users/srbb21/AppData/Local/Temp/rx18_gr30001521653382.841.odb,RELAX,Increment    105: Step Time =    1.000,SHELL-1,1367,3.72257,8.25,17.6091,ASSEMBLY_SHELL-1_ALLEL,TI,"shell < TI > < 5 section points > : SNEG, (fraction = -1.0)",109.108
C:/Users/srbb21/AppData/Local/Temp/rx18_gr30001521653382.841.odb,RELAX,Increment    105: Step Time =    1.000,SHELL-1,1368,3.72257,8.75,17.6091,ASSEMBLY_SHELL-1_ALLEL,TI,"shell < TI > < 5 section points > : SNEG, (fraction = -1.0)",105.489
C:/Users/srbb21/AppData/Local/Temp/rx18_gr30001521653382.841.odb,RELAX,Increment    105: Step Time =    1.000,SHELL-1,1368,3.72257,8.75,17.6091,ASSEMBLY_SHELL-1_ALLEL,TI,"shell < TI > < 5 section points > : SPOS, (fraction = 1.0)",140.012
C:/Users/srbb21/AppData/Local/Temp/rx18_gr30001521653382.841.odb,RELAX,Increment    105: Step Time =    1.000,SHELL-1,1369,4.21022,-8.75,17.4989,ASSEMBLY_SHELL-1_ALLEL,TI,"shell < TI > < 5 section points > : SPOS, (fraction = 1.0)",140.071
C:/Users/srbb21/AppData/Local/Temp/rx18_gr30001521653382.841.odb,RELAX,Increment    105: Step Time =    1.000,SHELL-1,1369,4.21022,-8.75,17.4989,ASSEMBLY_SHELL-1_ALLEL,TI,"shell < TI > < 5 section points > : SNEG, (fraction = -1.0)",105.044
C:/Users/srbb21/AppData/Local/Temp/rx18_gr30001521653382.841.odb,RELAX,Increment    105: Step Time =    1.000,SHELL-1,1370,4.21022,-8.25,17.4989,ASSEMBLY_SHELL-1_ALLEL,TI,"shell < TI > < 5 section points > : SPOS, (fraction = 1.0)",136.978
C:/Users/srbb21/AppData/Local/Temp/rx18_gr30001521653382.841.odb,RELAX,Increment    105: Step Time =    1.000,SHELL-1,1370,4.21022,-8.25,17.4989,ASSEMBLY_SHELL-1_ALLEL,TI,"shell < TI > < 5 section points > : SNEG, (fraction = -1.0)",108.8
C:/Users/srbb21/AppData/Local/Temp/rx18_gr30001521653382.841.odb,RELAX,Increment    105: Step Time =    1.000,SHELL-1,1371,4.21022,-7.75,17.4989,ASSEMBLY_SHELL-1_ALLEL,TI,"shell < TI > < 5 section points > : SPOS, (fraction = 1.0)",134.109
C:/Users/srbb21/AppData/Local/Temp/rx18_gr30001521653382.841.odb,RELAX,Increment    105: Step Time =    1.000,SHELL-1,1371,4.21022,-7.75,17.4989,ASSEMBLY_SHELL-1_ALLEL,TI,"shell < TI > < 5 section points > : SNEG, (fraction = -1.0)",112.339
C:/Users/srbb21/AppData/Local/Temp/rx18_gr30001521653382.841.odb,RELAX,Increment    105: Step Time =    1.000,SHELL-1,1372,4.21022,-7.25,17.4989,ASSEMBLY_SHELL-1_ALLEL,TI,"shell < TI > < 5 section points > : SPOS, (fraction = 1.0)",131.47
C:/Users/srbb21/AppData/Local/Temp/rx18_gr30001521653382.841.odb,RELAX,Increment    105: Step Time =    1.000,SHELL-1,1372,4.21022,-7.25,17.4989,ASSEMBLY_SHELL-1_ALLEL,TI,"shell < TI > < 5 section points > : SNEG, (fraction = -1.0)",115.615
C:/Users/srbb21/AppData/Local/Temp/rx18_gr30001521653382.841.odb,RELAX,Increment    105: Step Time =    1.000,SHELL-1,1373,4.21022,-6.75,17.4989,ASSEMBLY_SHELL-1_ALLEL,TI,"shell < TI > < 5 section points > : SNEG, (fraction = -1.0)",118.588
C:/Users/srbb21/AppData/Local/Temp/rx18_gr30001521653382.841.odb,RELAX,Increment    105: Step Time =    1.000,SHELL-1,1373,4.21022,-6.75,17.4989,ASSEMBLY_SHELL-1_ALLEL,TI,"shell < TI > < 5 section points > : SPOS, (fraction = 1.0)",129.073
C:/Users/srbb21/AppData/Local/Temp/rx18_gr30001521653382.841.odb,RELAX,Increment    105: Step Time =    1.000,SHELL-1,1374,4.21022,-6.25,17.4989,ASSEMBLY_SHELL-1_ALLEL,TI,"shell < TI > < 5 section points > : SPOS, (fraction = 1.0)",126.919
C:/Users/srbb21/AppData/Local/Temp/rx18_gr30001521653382.841.odb,RELAX,Increment    105: Step Time =    1.000,SHELL-1,1374,4.21022,-6.25,17.4989,ASSEMBLY_SHELL-1_ALLEL,TI,"shell < TI > < 5 section points > : SNEG, (fraction = -1.0)",121.23
C:/Users/srbb21/AppData/Local/Temp/rx18_gr30001521653382.841.odb,RELAX,Increment    105: Step Time =    1.000,SHELL-1,1375,4.21022,-5.75,17.4989,ASSEMBLY_SHELL-1_ALLEL,TI,"shell < TI > < 5 section points > : SPOS, (fraction = 1.0)",125.008
C:/Users/srbb21/AppData/Local/Temp/rx18_gr30001521653382.841.odb,RELAX,Increment    105: Step Time =    1.000,SHELL-1,1375,4.21022,-5.75,17.4989,ASSEMBLY_SHELL-1_ALLEL,TI,"shell < TI > < 5 section points > : SNEG, (fraction = -1.0)",123.522
C:/Users/srbb21/AppData/Local/Temp/rx18_gr30001521653382.841.odb,RELAX,Increment    105: Step Time =    1.000,SHELL-1,1376,4.21022,-5.25,17.4989,ASSEMBLY_SHELL-1_ALLEL,TI,"shell < TI > < 5 section points > : SPOS, (fraction = 1.0)",123.334
C:/Users/srbb21/AppData/Local/Temp/rx18_gr30001521653382.841.odb,RELAX,Increment    105: Step Time =    1.000,SHELL-1,1376,4.21022,-5.25,17.4989,ASSEMBLY_SHELL-1_ALLEL,TI,"shell < TI > < 5 section points > : SNEG, (fraction = -1.0)",125.464
C:/Users/srbb21/AppData/Local/Temp/rx18_gr30001521653382.841.odb,RELAX,Increment    105: Step Time =    1.000,SHELL-1,1377,4.21022,-4.75,17.4989,ASSEMBLY_SHELL-1_ALLEL,TI,"shell < TI > < 5 section points > : SNEG, (fraction = -1.0)",127.066
C:/Users/srbb21/AppData/Local/Temp/rx18_gr30001521653382.841.odb,RELAX,Increment    105: Step Time =    1.000,SHELL-1,1377,4.21022,-4.75,17.4989,ASSEMBLY_SHELL-1_ALLEL,TI,"shell < TI > < 5 section points > : SPOS, (fraction = 1.0)",121.886
C:/Users/srbb21/AppData/Local/Temp/rx18_gr30001521653382.841.odb,RELAX,Increment    105: Step Time =    1.000,SHELL-1,1378,4.21022,-4.25,17.4989,ASSEMBLY_SHELL-1_ALLEL,TI,"shell < TI > < 5 section points > : SPOS, (fraction = 1.0)",120.653
C:/Users/srbb21/AppData/Local/Temp/rx18_gr30001521653382.841.odb,RELAX,Increment    105: Step Time =    1.000,SHELL-1,1378,4.21022,-4.25,17.4989,ASSEMBLY_SHELL-1_ALLEL,TI,"shell < TI > < 5 section points > : SNEG, (fraction = -1.0)",128.353
C:/Users/srbb21/AppData/Local/Temp/rx18_gr30001521653382.841.odb,RELAX,Increment    105: Step Time =    1.000,SHELL-1,1379,4.21022,-3.75,17.4989,ASSEMBLY_SHELL-1_ALLEL,TI,"shell < TI > < 5 section points > : SPOS, (fraction = 1.0)",119.619
C:/Users/srbb21/AppData/Local/Temp/rx18_gr30001521653382.841.odb,RELAX,Increment    105: Step Time =    1.000,SHELL-1,1379,4.21022,-3.75,17.4989,ASSEMBLY_SHELL-1_ALLEL,TI,"shell < TI > < 5 section points > : SNEG, (fraction = -1.0)",129.357
C:/Users/srbb21/AppData/Local/Temp/rx18_gr30001521653382.841.odb,RELAX,Increment    105: Step Time =    1.000,SHELL-1,1380,4.21022,-3.25,17.4989,ASSEMBLY_SHELL-1_ALLEL,TI,"shell < TI > < 5 section points > : SPOS, (fraction = 1.0)",118.77
C:/Users/srbb21/AppData/Local/Temp/rx18_gr30001521653382.841.odb,RELAX,Increment    105: Step Time =    1.000,SHELL-1,1380,4.21022,-3.25,17.4989,ASSEMBLY_SHELL-1_ALLEL,TI,"shell < TI > < 5 section points > : SNEG, (fraction = -1.0)",130.117
C:/Users/srbb21/AppData/Local/Temp/rx18_gr30001521653382.841.odb,RELAX,Increment    105: Step Time =    1.000,SHELL-1,1381,4.21022,-2.75,17.4989,ASSEMBLY_SHELL-1_ALLEL,TI,"shell < TI > < 5 section points > : SNEG, (fraction = -1.0)",130.673
C:/Users/srbb21/AppData/Local/Temp/rx18_gr30001521653382.841.odb,RELAX,Increment    105: Step Time =    1.000,SHELL-1,1381,4.21022,-2.75,17.4989,ASSEMBLY_SHELL-1_ALLEL,TI,"shell < TI > < 5 section points > : SPOS, (fraction = 1.0)",118.086
C:/Users/srbb21/AppData/Local/Temp/rx18_gr30001521653382.841.odb,RELAX,Increment    105: Step Time =    1.000,SHELL-1,1382,4.21022,-2.25,17.4989,ASSEMBLY_SHELL-1_ALLEL,TI,"shell < TI > < 5 section points > : SPOS, (fraction = 1.0)",117.552
C:/Users/srbb21/AppData/Local/Temp/rx18_gr30001521653382.841.odb,RELAX,Increment    105: Step Time =    1.000,SHELL-1,1382,4.21022,-2.25,17.4989,ASSEMBLY_SHELL-1_ALLEL,TI,"shell < TI > < 5 section points > : SNEG, (fraction = -1.0)",131.066
C:/Users/srbb21/AppData/Local/Temp/rx18_gr30001521653382.841.odb,RELAX,Increment    105: Step Time =    1.000,SHELL-1,1383,4.21022,-1.75,17.4989,ASSEMBLY_SHELL-1_ALLEL,TI,"shell < TI > < 5 section points > : SPOS, (fraction = 1.0)",117.15
C:/Users/srbb21/AppData/Local/Temp/rx18_gr30001521653382.841.odb,RELAX,Increment    105: Step Time =    1.000,SHELL-1,1383,4.21022,-1.75,17.4989,ASSEMBLY_SHELL-1_ALLEL,TI,"shell < TI > < 5 section points > : SNEG, (fraction = -1.0)",131.331
C:/Users/srbb21/AppData/Local/Temp/rx18_gr30001521653382.841.odb,RELAX,Increment    105: Step Time =    1.000,SHELL-1,1384,4.21022,-1.25,17.4989,ASSEMBLY_SHELL-1_ALLEL,TI,"shell < TI > < 5 section points > : SPOS, (fraction = 1.0)",116.864
C:/Users/srbb21/AppData/Local/Temp/rx18_gr30001521653382.841.odb,RELAX,Increment    105: Step Time =    1.000,SHELL-1,1384,4.21022,-1.25,17.4989,ASSEMBLY_SHELL-1_ALLEL,TI,"shell < TI > < 5 section points > : SNEG, (fraction = -1.0)",131.502
C:/Users/srbb21/AppData/Local/Temp/rx18_gr30001521653382.841.odb,RELAX,Increment    105: Step Time =    1.000,SHELL-1,1385,4.21022,-0.75,17.4989,ASSEMBLY_SHELL-1_ALLEL,TI,"shell < TI > < 5 section points > : SNEG, (fraction = -1.0)",131.601
C:/Users/srbb21/AppData/Local/Temp/rx18_gr30001521653382.841.odb,RELAX,Increment    105: Step Time =    1.000,SHELL-1,1385,4.21022,-0.75,17.4989,ASSEMBLY_SHELL-1_ALLEL,TI,"shell < TI > < 5 section points > : SPOS, (fraction = 1.0)",116.681
C:/Users/srbb21/AppData/Local/Temp/rx18_gr30001521653382.841.odb,RELAX,Increment    105: Step Time =    1.000,SHELL-1,1386,4.21022,-0.25,17.4989,ASSEMBLY_SHELL-1_ALLEL,TI,"shell < TI > < 5 section points > : SPOS, (fraction = 1.0)",116.592
C:/Users/srbb21/AppData/Local/Temp/rx18_gr30001521653382.841.odb,RELAX,Increment    105: Step Time =    1.000,SHELL-1,1386,4.21022,-0.25,17.4989,ASSEMBLY_SHELL-1_ALLEL,TI,"shell < TI > < 5 section points > : SNEG, (fraction = -1.0)",131.646
C:/Users/srbb21/AppData/Local/Temp/rx18_gr30001521653382.841.odb,RELAX,Increment    105: Step Time =    1.000,SHELL-1,1387,4.21022,0.25,17.4989,ASSEMBLY_SHELL-1_ALLEL,TI,"shell < TI > < 5 section points > : SPOS, (fraction = 1.0)",116.592
C:/Users/srbb21/AppData/Local/Temp/rx18_gr30001521653382.841.odb,RELAX,Increment    105: Step Time =    1.000,SHELL-1,1387,4.21022,0.25,17.4989,ASSEMBLY_SHELL-1_ALLEL,TI,"shell < TI > < 5 section points > : SNEG, (fraction = -1.0)",131.646
C:/Users/srbb21/AppData/Local/Temp/rx18_gr30001521653382.841.odb,RELAX,Increment    105: Step Time =    1.000,SHELL-1,1388,4.21022,0.75,17.4989,ASSEMBLY_SHELL-1_ALLEL,TI,"shell < TI > < 5 section points > : SPOS, (fraction = 1.0)",116.681
C:/Users/srbb21/AppData/Local/Temp/rx18_gr30001521653382.841.odb,RELAX,Increment    105: Step Time =    1.000,SHELL-1,1388,4.21022,0.75,17.4989,ASSEMBLY_SHELL-1_ALLEL,TI,"shell < TI > < 5 section points > : SNEG, (fraction = -1.0)",131.601
C:/Users/srbb21/AppData/Local/Temp/rx18_gr30001521653382.841.odb,RELAX,Increment    105: Step Time =    1.000,SHELL-1,1389,4.21022,1.25,17.4989,ASSEMBLY_SHELL-1_ALLEL,TI,"shell < TI > < 5 section points > : SPOS, (fraction = 1.0)",116.864
C:/Users/srbb21/AppData/Local/Temp/rx18_gr30001521653382.841.odb,RELAX,Increment    105: Step Time =    1.000,SHELL-1,1389,4.21022,1.25,17.4989,ASSEMBLY_SHELL-1_ALLEL,TI,"shell < TI > < 5 section points > : SNEG, (fraction = -1.0)",131.502
C:/Users/srbb21/AppData/Local/Temp/rx18_gr30001521653382.841.odb,RELAX,Increment    105: Step Time =    1.000,SHELL-1,1390,4.21022,1.75,17.4989,ASSEMBLY_SHELL-1_ALLEL,TI,"shell < TI > < 5 section points > : SNEG, (fraction = -1.0)",131.331
C:/Users/srbb21/AppData/Local/Temp/rx18_gr30001521653382.841.odb,RELAX,Increment    105: Step Time =    1.000,SHELL-1,1390,4.21022,1.75,17.4989,ASSEMBLY_SHELL-1_ALLEL,TI,"shell < TI > < 5 section points > : SPOS, (fraction = 1.0)",117.15
C:/Users/srbb21/AppData/Local/Temp/rx18_gr30001521653382.841.odb,RELAX,Increment    105: Step Time =    1.000,SHELL-1,1391,4.21022,2.25,17.4989,ASSEMBLY_SHELL-1_ALLEL,TI,"shell < TI > < 5 section points > : SPOS, (fraction = 1.0)",117.552
C:/Users/srbb21/AppData/Local/Temp/rx18_gr30001521653382.841.odb,RELAX,Increment    105: Step Time =    1.000,SHELL-1,1391,4.21022,2.25,17.4989,ASSEMBLY_SHELL-1_ALLEL,TI,"shell < TI > < 5 section points > : SNEG, (fraction = -1.0)",131.066
C:/Users/srbb21/AppData/Local/Temp/rx18_gr30001521653382.841.odb,RELAX,Increment    105: Step Time =    1.000,SHELL-1,1392,4.21022,2.75,17.4989,ASSEMBLY_SHELL-1_ALLEL,TI,"shell < TI > < 5 section points > : SPOS, (fraction = 1.0)",118.086
C:/Users/srbb21/AppData/Local/Temp/rx18_gr30001521653382.841.odb,RELAX,Increment    105: Step Time =    1.000,SHELL-1,1392,4.21022,2.75,17.4989,ASSEMBLY_SHELL-1_ALLEL,TI,"shell < TI > < 5 section points > : SNEG, (fraction = -1.0)",130.673
C:/Users/srbb21/AppData/Local/Temp/rx18_gr30001521653382.841.odb,RELAX,Increment    105: Step Time =    1.000,SHELL-1,1393,4.21022,3.25,17.4989,ASSEMBLY_SHELL-1_ALLEL,TI,"shell < TI > < 5 section points > : SPOS, (fraction = 1.0)",118.77
C:/Users/srbb21/AppData/Local/Temp/rx18_gr30001521653382.841.odb,RELAX,Increment    105: Step Time =    1.000,SHELL-1,1393,4.21022,3.25,17.4989,ASSEMBLY_SHELL-1_ALLEL,TI,"shell < TI > < 5 section points > : SNEG, (fraction = -1.0)",130.117
C:/Users/srbb21/AppData/Local/Temp/rx18_gr30001521653382.841.odb,RELAX,Increment    105: Step Time =    1.000,SHELL-1,1394,4.21022,3.75,17.4989,ASSEMBLY_SHELL-1_ALLEL,TI,"shell < TI > < 5 section points > : SNEG, (fraction = -1.0)",129.357
C:/Users/srbb21/AppData/Local/Temp/rx18_gr30001521653382.841.odb,RELAX,Increment    105: Step Time =    1.000,SHELL-1,1394,4.21022,3.75,17.4989,ASSEMBLY_SHELL-1_ALLEL,TI,"shell < TI > < 5 section points > : SPOS, (fraction = 1.0)",119.619
C:/Users/srbb21/AppData/Local/Temp/rx18_gr30001521653382.841.odb,RELAX,Increment    105: Step Time =    1.000,SHELL-1,1395,4.21022,4.25,17.4989,ASSEMBLY_SHELL-1_ALLEL,TI,"shell < TI > < 5 section points > : SPOS, (fraction = 1.0)",120.653
C:/Users/srbb21/AppData/Local/Temp/rx18_gr30001521653382.841.odb,RELAX,Increment    105: Step Time =    1.000,SHELL-1,1395,4.21022,4.25,17.4989,ASSEMBLY_SHELL-1_ALLEL,TI,"shell < TI > < 5 section points > : SNEG, (fraction = -1.0)",128.353
C:/Users/srbb21/AppData/Local/Temp/rx18_gr30001521653382.841.odb,RELAX,Increment    105: Step Time =    1.000,SHELL-1,1396,4.21022,4.75,17.4989,ASSEMBLY_SHELL-1_ALLEL,TI,"shell < TI > < 5 section points > : SPOS, (fraction = 1.0)",121.886
C:/Users/srbb21/AppData/Local/Temp/rx18_gr30001521653382.841.odb,RELAX,Increment    105: Step Time =    1.000,SHELL-1,1396,4.21022,4.75,17.4989,ASSEMBLY_SHELL-1_ALLEL,TI,"shell < TI > < 5 section points > : SNEG, (fraction = -1.0)",127.066
C:/Users/srbb21/AppData/Local/Temp/rx18_gr30001521653382.841.odb,RELAX,Increment    105: Step Time =    1.000,SHELL-1,1397,4.21022,5.25,17.4989,ASSEMBLY_SHELL-1_ALLEL,TI,"shell < TI > < 5 section points > : SPOS, (fraction = 1.0)",123.334
C:/Users/srbb21/AppData/Local/Temp/rx18_gr30001521653382.841.odb,RELAX,Increment    105: Step Time =    1.000,SHELL-1,1397,4.21022,5.25,17.4989,ASSEMBLY_SHELL-1_ALLEL,TI,"shell < TI > < 5 section points > : SNEG, (fraction = -1.0)",125.464
C:/Users/srbb21/AppData/Local/Temp/rx18_gr30001521653382.841.odb,RELAX,Increment    105: Step Time =    1.000,SHELL-1,1398,4.21022,5.75,17.4989,ASSEMBLY_SHELL-1_ALLEL,TI,"shell < TI > < 5 section points > : SNEG, (fraction = -1.0)",123.522
C:/Users/srbb21/AppData/Local/Temp/rx18_gr30001521653382.841.odb,RELAX,Increment    105: Step Time =    1.000,SHELL-1,1398,4.21022,5.75,17.4989,ASSEMBLY_SHELL-1_ALLEL,TI,"shell < TI > < 5 section points > : SPOS, (fraction = 1.0)",125.008
C:/Users/srbb21/AppData/Local/Temp/rx18_gr30001521653382.841.odb,RELAX,Increment    105: Step Time =    1.000,SHELL-1,1399,4.21022,6.25,17.4989,ASSEMBLY_SHELL-1_ALLEL,TI,"shell < TI > < 5 section points > : SPOS, (fraction = 1.0)",126.919
C:/Users/srbb21/AppData/Local/Temp/rx18_gr30001521653382.841.odb,RELAX,Increment    105: Step Time =    1.000,SHELL-1,1399,4.21022,6.25,17.4989,ASSEMBLY_SHELL-1_ALLEL,TI,"shell < TI > < 5 section points > : SNEG, (fraction = -1.0)",121.23
C:/Users/srbb21/AppData/Local/Temp/rx18_gr30001521653382.841.odb,RELAX,Increment    105: Step Time =    1.000,SHELL-1,1400,4.21022,6.75,17.4989,ASSEMBLY_SHELL-1_ALLEL,TI,"shell < TI > < 5 section points > : SPOS, (fraction = 1.0)",129.073
C:/Users/srbb21/AppData/Local/Temp/rx18_gr30001521653382.841.odb,RELAX,Increment    105: Step Time =    1.000,SHELL-1,1400,4.21022,6.75,17.4989,ASSEMBLY_SHELL-1_ALLEL,TI,"shell < TI > < 5 section points > : SNEG, (fraction = -1.0)",118.588
C:/Users/srbb21/AppData/Local/Temp/rx18_gr30001521653382.841.odb,RELAX,Increment    105: Step Time =    1.000,SHELL-1,1401,4.21022,7.25,17.4989,ASSEMBLY_SHELL-1_ALLEL,TI,"shell < TI > < 5 section points > : SPOS, (fraction = 1.0)",131.47
C:/Users/srbb21/AppData/Local/Temp/rx18_gr30001521653382.841.odb,RELAX,Increment    105: Step Time =    1.000,SHELL-1,1401,4.21022,7.25,17.4989,ASSEMBLY_SHELL-1_ALLEL,TI,"shell < TI > < 5 section points > : SNEG, (fraction = -1.0)",115.615
C:/Users/srbb21/AppData/Local/Temp/rx18_gr30001521653382.841.odb,RELAX,Increment    105: Step Time =    1.000,SHELL-1,1402,4.21022,7.75,17.4989,ASSEMBLY_SHELL-1_ALLEL,TI,"shell < TI > < 5 section points > : SNEG, (fraction = -1.0)",112.339
C:/Users/srbb21/AppData/Local/Temp/rx18_gr30001521653382.841.odb,RELAX,Increment    105: Step Time =    1.000,SHELL-1,1402,4.21022,7.75,17.4989,ASSEMBLY_SHELL-1_ALLEL,TI,"shell < TI > < 5 section points > : SPOS, (fraction = 1.0)",134.109
C:/Users/srbb21/AppData/Local/Temp/rx18_gr30001521653382.841.odb,RELAX,Increment    105: Step Time =    1.000,SHELL-1,1403,4.21022,8.25,17.4989,ASSEMBLY_SHELL-1_ALLEL,TI,"shell < TI > < 5 section points > : SPOS, (fraction = 1.0)",136.978
C:/Users/srbb21/AppData/Local/Temp/rx18_gr30001521653382.841.odb,RELAX,Increment    105: Step Time =    1.000,SHELL-1,1403,4.21022,8.25,17.4989,ASSEMBLY_SHELL-1_ALLEL,TI,"shell < TI > < 5 section points > : SNEG, (fraction = -1.0)",108.8
C:/Users/srbb21/AppData/Local/Temp/rx18_gr30001521653382.841.odb,RELAX,Increment    105: Step Time =    1.000,SHELL-1,1404,4.21022,8.75,17.4989,ASSEMBLY_SHELL-1_ALLEL,TI,"shell < TI > < 5 section points > : SPOS, (fraction = 1.0)",140.071
C:/Users/srbb21/AppData/Local/Temp/rx18_gr30001521653382.841.odb,RELAX,Increment    105: Step Time =    1.000,SHELL-1,1404,4.21022,8.75,17.4989,ASSEMBLY_SHELL-1_ALLEL,TI,"shell < TI > < 5 section points > : SNEG, (fraction = -1.0)",105.044
C:/Users/srbb21/AppData/Local/Temp/rx18_gr30001521653382.841.odb,RELAX,Increment    105: Step Time =    1.000,SHELL-1,1405,4.69461,-8.75,17.3752,ASSEMBLY_SHELL-1_ALLEL,TI,"shell < TI > < 5 section points > : SPOS, (fraction = 1.0)",140.171
C:/Users/srbb21/AppData/Local/Temp/rx18_gr30001521653382.841.odb,RELAX,Increment    105: Step Time =    1.000,SHELL-1,1405,4.69461,-8.75,17.3752,ASSEMBLY_SHELL-1_ALLEL,TI,"shell < TI > < 5 section points > : SNEG, (fraction = -1.0)",104.523
C:/Users/srbb21/AppData/Local/Temp/rx18_gr30001521653382.841.odb,RELAX,Increment    105: Step Time =    1.000,SHELL-1,1406,4.69461,-8.25,17.3752,ASSEMBLY_SHELL-1_ALLEL,TI,"shell < TI > < 5 section points > : SPOS, (fraction = 1.0)",136.969
C:/Users/srbb21/AppData/Local/Temp/rx18_gr30001521653382.841.odb,RELAX,Increment    105: Step Time =    1.000,SHELL-1,1406,4.69461,-8.25,17.3752,ASSEMBLY_SHELL-1_ALLEL,TI,"shell < TI > < 5 section points > : SNEG, (fraction = -1.0)",108.444
C:/Users/srbb21/AppData/Local/Temp/rx18_gr30001521653382.841.odb,RELAX,Increment    105: Step Time =    1.000,SHELL-1,1407,4.69461,-7.75,17.3752,ASSEMBLY_SHELL-1_ALLEL,TI,"shell < TI > < 5 section points > : SNEG, (fraction = -1.0)",112.15
C:/Users/srbb21/AppData/Local/Temp/rx18_gr30001521653382.841.odb,RELAX,Increment    105: Step Time =    1.000,SHELL-1,1407,4.69461,-7.75,17.3752,ASSEMBLY_SHELL-1_ALLEL,TI,"shell < TI > < 5 section points > : SPOS, (fraction = 1.0)",133.992
C:/Users/srbb21/AppData/Local/Temp/rx18_gr30001521653382.841.odb,RELAX,Increment    105: Step Time =    1.000,SHELL-1,1408,4.69461,-7.25,17.3752,ASSEMBLY_SHELL-1_ALLEL,TI,"shell < TI > < 5 section points > : SPOS, (fraction = 1.0)",131.258
C:/Users/srbb21/AppData/Local/Temp/rx18_gr30001521653382.841.odb,RELAX,Increment    105: Step Time =    1.000,SHELL-1,1408,4.69461,-7.25,17.3752,ASSEMBLY_SHELL-1_ALLEL,TI,"shell < TI > < 5 section points > : SNEG, (fraction = -1.0)",115.578
C:/Users/srbb21/AppData/Local/Temp/rx18_gr30001521653382.841.odb,RELAX,Increment    105: Step Time =    1.000,SHELL-1,1409,4.69461,-6.75,17.3752,ASSEMBLY_SHELL-1_ALLEL,TI,"shell < TI > < 5 section points > : SPOS, (fraction = 1.0)",128.786
C:/Users/srbb21/AppData/Local/Temp/rx18_gr30001521653382.841.odb,RELAX,Increment    105: Step Time =    1.000,SHELL-1,1409,4.69461,-6.75,17.3752,ASSEMBLY_SHELL-1_ALLEL,TI,"shell < TI > < 5 section points > : SNEG, (fraction = -1.0)",118.679
C:/Users/srbb21/AppData/Local/Temp/rx18_gr30001521653382.841.odb,RELAX,Increment    105: Step Time =    1.000,SHELL-1,1410,4.69461,-6.25,17.3752,ASSEMBLY_SHELL-1_ALLEL,TI,"shell < TI > < 5 section points > : SPOS, (fraction = 1.0)",126.586
C:/Users/srbb21/AppData/Local/Temp/rx18_gr30001521653382.841.odb,RELAX,Increment    105: Step Time =    1.000,SHELL-1,1410,4.69461,-6.25,17.3752,ASSEMBLY_SHELL-1_ALLEL,TI,"shell < TI > < 5 section points > : SNEG, (fraction = -1.0)",121.415
C:/Users/srbb21/AppData/Local/Temp/rx18_gr30001521653382.841.odb,RELAX,Increment    105: Step Time =    1.000,SHELL-1,1411,4.69461,-5.75,17.3752,ASSEMBLY_SHELL-1_ALLEL,TI,"shell < TI > < 5 section points > : SNEG, (fraction = -1.0)",123.768
C:/Users/srbb21/AppData/Local/Temp/rx18_gr30001521653382.841.odb,RELAX,Increment    105: Step Time =    1.000,SHELL-1,1411,4.69461,-5.75,17.3752,ASSEMBLY_SHELL-1_ALLEL,TI,"shell < TI > < 5 section points > : SPOS, (fraction = 1.0)",124.657
C:/Users/srbb21/AppData/Local/Temp/rx18_gr30001521653382.841.odb,RELAX,Increment    105: Step Time =    1.000,SHELL-1,1412,4.69461,-5.25,17.3752,ASSEMBLY_SHELL-1_ALLEL,TI,"shell < TI > < 5 section points > : SPOS, (fraction = 1.0)",122.995
C:/Users/srbb21/AppData/Local/Temp/rx18_gr30001521653382.841.odb,RELAX,Increment    105: Step Time =    1.000,SHELL-1,1412,4.69461,-5.25,17.3752,ASSEMBLY_SHELL-1_ALLEL,TI,"shell < TI > < 5 section points > : SNEG, (fraction = -1.0)",125.736
C:/Users/srbb21/AppData/Local/Temp/rx18_gr30001521653382.841.odb,RELAX,Increment    105: Step Time =    1.000,SHELL-1,1413,4.69461,-4.75,17.3752,ASSEMBLY_SHELL-1_ALLEL,TI,"shell < TI > < 5 section points > : SPOS, (fraction = 1.0)",121.587
C:/Users/srbb21/AppData/Local/Temp/rx18_gr30001521653382.841.odb,RELAX,Increment    105: Step Time =    1.000,SHELL-1,1413,4.69461,-4.75,17.3752,ASSEMBLY_SHELL-1_ALLEL,TI,"shell < TI > < 5 section points > : SNEG, (fraction = -1.0)",127.336
C:/Users/srbb21/AppData/Local/Temp/rx18_gr30001521653382.841.odb,RELAX,Increment    105: Step Time =    1.000,SHELL-1,1414,4.69461,-4.25,17.3752,ASSEMBLY_SHELL-1_ALLEL,TI,"shell < TI > < 5 section points > : SPOS, (fraction = 1.0)",120.416
C:/Users/srbb21/AppData/Local/Temp/rx18_gr30001521653382.841.odb,RELAX,Increment    105: Step Time =    1.000,SHELL-1,1414,4.69461,-4.25,17.3752,ASSEMBLY_SHELL-1_ALLEL,TI,"shell < TI > < 5 section points > : SNEG, (fraction = -1.0)",128.597
C:/Users/srbb21/AppData/Local/Temp/rx18_gr30001521653382.841.odb,RELAX,Increment    105: Step Time =    1.000,SHELL-1,1415,4.69461,-3.75,17.3752,ASSEMBLY_SHELL-1_ALLEL,TI,"shell < TI > < 5 section points > : SNEG, (fraction = -1.0)",129.559
C:/Users/srbb21/AppData/Local/Temp/rx18_gr30001521653382.841.odb,RELAX,Increment    105: Step Time =    1.000,SHELL-1,1415,4.69461,-3.75,17.3752,ASSEMBLY_SHELL-1_ALLEL,TI,"shell < TI > < 5 section points > : SPOS, (fraction = 1.0)",119.463
C:/Users/srbb21/AppData/Local/Temp/rx18_gr30001521653382.841.odb,RELAX,Increment    105: Step Time =    1.000,SHELL-1,1416,4.69461,-3.25,17.3752,ASSEMBLY_SHELL-1_ALLEL,TI,"shell < TI > < 5 section points > : SPOS, (fraction = 1.0)",118.704
C:/Users/srbb21/AppData/Local/Temp/rx18_gr30001521653382.841.odb,RELAX,Increment    105: Step Time =    1.000,SHELL-1,1416,4.69461,-3.25,17.3752,ASSEMBLY_SHELL-1_ALLEL,TI,"shell < TI > < 5 section points > : SNEG, (fraction = -1.0)",130.267
C:/Users/srbb21/AppData/Local/Temp/rx18_gr30001521653382.841.odb,RELAX,Increment    105: Step Time =    1.000,SHELL-1,1417,4.69461,-2.75,17.3752,ASSEMBLY_SHELL-1_ALLEL,TI,"shell < TI > < 5 section points > : SPOS, (fraction = 1.0)",118.116
C:/Users/srbb21/AppData/Local/Temp/rx18_gr30001521653382.841.odb,RELAX,Increment    105: Step Time =    1.000,SHELL-1,1417,4.69461,-2.75,17.3752,ASSEMBLY_SHELL-1_ALLEL,TI,"shell < TI > < 5 section points > : SNEG, (fraction = -1.0)",130.768
C:/Users/srbb21/AppData/Local/Temp/rx18_gr30001521653382.841.odb,RELAX,Increment    105: Step Time =    1.000,SHELL-1,1418,4.69461,-2.25,17.3752,ASSEMBLY_SHELL-1_ALLEL,TI,"shell < TI > < 5 section points > : SPOS, (fraction = 1.0)",117.674
C:/Users/srbb21/AppData/Local/Temp/rx18_gr30001521653382.841.odb,RELAX,Increment    105: Step Time =    1.000,SHELL-1,1418,4.69461,-2.25,17.3752,ASSEMBLY_SHELL-1_ALLEL,TI,"shell < TI > < 5 section points > : SNEG, (fraction = -1.0)",131.106
C:/Users/srbb21/AppData/Local/Temp/rx18_gr30001521653382.841.odb,RELAX,Increment    105: Step Time =    1.000,SHELL-1,1419,4.69461,-1.75,17.3752,ASSEMBLY_SHELL-1_ALLEL,TI,"shell < TI > < 5 section points > : SNEG, (fraction = -1.0)",131.324
C:/Users/srbb21/AppData/Local/Temp/rx18_gr30001521653382.841.odb,RELAX,Increment    105: Step Time =    1.000,SHELL-1,1419,4.69461,-1.75,17.3752,ASSEMBLY_SHELL-1_ALLEL,TI,"shell < TI > < 5 section points > : SPOS, (fraction = 1.0)",117.355
C:/Users/srbb21/AppData/Local/Temp/rx18_gr30001521653382.841.odb,RELAX,Increment    105: Step Time =    1.000,SHELL-1,1420,4.69461,-1.25,17.3752,ASSEMBLY_SHELL-1_ALLEL,TI,"shell < TI > < 5 section points > : SPOS, (fraction = 1.0)",117.136
C:/Users/srbb21/AppData/Local/Temp/rx18_gr30001521653382.841.odb,RELAX,Increment    105: Step Time =    1.000,SHELL-1,1420,4.69461,-1.25,17.3752,ASSEMBLY_SHELL-1_ALLEL,TI,"shell < TI > < 5 section points > : SNEG, (fraction = -1.0)",131.456
C:/Users/srbb21/AppData/Local/Temp/rx18_gr30001521653382.841.odb,RELAX,Increment    105: Step Time =    1.000,SHELL-1,1421,4.69461,-0.75,17.3752,ASSEMBLY_SHELL-1_ALLEL,TI,"shell < TI > < 5 section points > : SPOS, (fraction = 1.0)",117.001
C:/Users/srbb21/AppData/Local/Temp/rx18_gr30001521653382.841.odb,RELAX,Increment    105: Step Time =    1.000,SHELL-1,1421,4.69461,-0.75,17.3752,ASSEMBLY_SHELL-1_ALLEL,TI,"shell < TI > < 5 section points > : SNEG, (fraction = -1.0)",131.529
C:/Users/srbb21/AppData/Local/Temp/rx18_gr30001521653382.841.odb,RELAX,Increment    105: Step Time =    1.000,SHELL-1,1422,4.69461,-0.25,17.3752,ASSEMBLY_SHELL-1_ALLEL,TI,"shell < TI > < 5 section points > : SPOS, (fraction = 1.0)",116.936
C:/Users/srbb21/AppData/Local/Temp/rx18_gr30001521653382.841.odb,RELAX,Increment    105: Step Time =    1.000,SHELL-1,1422,4.69461,-0.25,17.3752,ASSEMBLY_SHELL-1_ALLEL,TI,"shell < TI > < 5 section points > : SNEG, (fraction = -1.0)",131.56
C:/Users/srbb21/AppData/Local/Temp/rx18_gr30001521653382.841.odb,RELAX,Increment    105: Step Time =    1.000,SHELL-1,1423,4.69461,0.25,17.3752,ASSEMBLY_SHELL-1_ALLEL,TI,"shell < TI > < 5 section points > : SPOS, (fraction = 1.0)",116.936
C:/Users/srbb21/AppData/Local/Temp/rx18_gr30001521653382.841.odb,RELAX,Increment    105: Step Time =    1.000,SHELL-1,1423,4.69461,0.25,17.3752,ASSEMBLY_SHELL-1_ALLEL,TI,"shell < TI > < 5 section points > : SNEG, (fraction = -1.0)",131.56
C:/Users/srbb21/AppData/Local/Temp/rx18_gr30001521653382.841.odb,RELAX,Increment    105: Step Time =    1.000,SHELL-1,1424,4.69461,0.75,17.3752,ASSEMBLY_SHELL-1_ALLEL,TI,"shell < TI > < 5 section points > : SNEG, (fraction = -1.0)",131.529
C:/Users/srbb21/AppData/Local/Temp/rx18_gr30001521653382.841.odb,RELAX,Increment    105: Step Time =    1.000,SHELL-1,1424,4.69461,0.75,17.3752,ASSEMBLY_SHELL-1_ALLEL,TI,"shell < TI > < 5 section points > : SPOS, (fraction = 1.0)",117.001
C:/Users/srbb21/AppData/Local/Temp/rx18_gr30001521653382.841.odb,RELAX,Increment    105: Step Time =    1.000,SHELL-1,1425,4.69461,1.25,17.3752,ASSEMBLY_SHELL-1_ALLEL,TI,"shell < TI > < 5 section points > : SPOS, (fraction = 1.0)",117.136
C:/Users/srbb21/AppData/Local/Temp/rx18_gr30001521653382.841.odb,RELAX,Increment    105: Step Time =    1.000,SHELL-1,1425,4.69461,1.25,17.3752,ASSEMBLY_SHELL-1_ALLEL,TI,"shell < TI > < 5 section points > : SNEG, (fraction = -1.0)",131.456
C:/Users/srbb21/AppData/Local/Temp/rx18_gr30001521653382.841.odb,RELAX,Increment    105: Step Time =    1.000,SHELL-1,1426,4.69461,1.75,17.3752,ASSEMBLY_SHELL-1_ALLEL,TI,"shell < TI > < 5 section points > : SPOS, (fraction = 1.0)",117.355
C:/Users/srbb21/AppData/Local/Temp/rx18_gr30001521653382.841.odb,RELAX,Increment    105: Step Time =    1.000,SHELL-1,1426,4.69461,1.75,17.3752,ASSEMBLY_SHELL-1_ALLEL,TI,"shell < TI > < 5 section points > : SNEG, (fraction = -1.0)",131.324
C:/Users/srbb21/AppData/Local/Temp/rx18_gr30001521653382.841.odb,RELAX,Increment    105: Step Time =    1.000,SHELL-1,1427,4.69461,2.25,17.3752,ASSEMBLY_SHELL-1_ALLEL,TI,"shell < TI > < 5 section points > : SPOS, (fraction = 1.0)",117.674
C:/Users/srbb21/AppData/Local/Temp/rx18_gr30001521653382.841.odb,RELAX,Increment    105: Step Time =    1.000,SHELL-1,1427,4.69461,2.25,17.3752,ASSEMBLY_SHELL-1_ALLEL,TI,"shell < TI > < 5 section points > : SNEG, (fraction = -1.0)",131.106
C:/Users/srbb21/AppData/Local/Temp/rx18_gr30001521653382.841.odb,RELAX,Increment    105: Step Time =    1.000,SHELL-1,1428,4.69461,2.75,17.3752,ASSEMBLY_SHELL-1_ALLEL,TI,"shell < TI > < 5 section points > : SNEG, (fraction = -1.0)",130.768
C:/Users/srbb21/AppData/Local/Temp/rx18_gr30001521653382.841.odb,RELAX,Increment    105: Step Time =    1.000,SHELL-1,1428,4.69461,2.75,17.3752,ASSEMBLY_SHELL-1_ALLEL,TI,"shell < TI > < 5 section points > : SPOS, (fraction = 1.0)",118.116
C:/Users/srbb21/AppData/Local/Temp/rx18_gr30001521653382.841.odb,RELAX,Increment    105: Step Time =    1.000,SHELL-1,1429,4.69461,3.25,17.3752,ASSEMBLY_SHELL-1_ALLEL,TI,"shell < TI > < 5 section points > : SPOS, (fraction = 1.0)",118.704
C:/Users/srbb21/AppData/Local/Temp/rx18_gr30001521653382.841.odb,RELAX,Increment    105: Step Time =    1.000,SHELL-1,1429,4.69461,3.25,17.3752,ASSEMBLY_SHELL-1_ALLEL,TI,"shell < TI > < 5 section points > : SNEG, (fraction = -1.0)",130.267
C:/Users/srbb21/AppData/Local/Temp/rx18_gr30001521653382.841.odb,RELAX,Increment    105: Step Time =    1.000,SHELL-1,1430,4.69461,3.75,17.3752,ASSEMBLY_SHELL-1_ALLEL,TI,"shell < TI > < 5 section points > : SPOS, (fraction = 1.0)",119.463
C:/Users/srbb21/AppData/Local/Temp/rx18_gr30001521653382.841.odb,RELAX,Increment    105: Step Time =    1.000,SHELL-1,1430,4.69461,3.75,17.3752,ASSEMBLY_SHELL-1_ALLEL,TI,"shell < TI > < 5 section points > : SNEG, (fraction = -1.0)",129.559
C:/Users/srbb21/AppData/Local/Temp/rx18_gr30001521653382.841.odb,RELAX,Increment    105: Step Time =    1.000,SHELL-1,1431,4.69461,4.25,17.3752,ASSEMBLY_SHELL-1_ALLEL,TI,"shell < TI > < 5 section points > : SPOS, (fraction = 1.0)",120.416
C:/Users/srbb21/AppData/Local/Temp/rx18_gr30001521653382.841.odb,RELAX,Increment    105: Step Time =    1.000,SHELL-1,1431,4.69461,4.25,17.3752,ASSEMBLY_SHELL-1_ALLEL,TI,"shell < TI > < 5 section points > : SNEG, (fraction = -1.0)",128.597
C:/Users/srbb21/AppData/Local/Temp/rx18_gr30001521653382.841.odb,RELAX,Increment    105: Step Time =    1.000,SHELL-1,1432,4.69461,4.75,17.3752,ASSEMBLY_SHELL-1_ALLEL,TI,"shell < TI > < 5 section points > : SNEG, (fraction = -1.0)",127.336
C:/Users/srbb21/AppData/Local/Temp/rx18_gr30001521653382.841.odb,RELAX,Increment    105: Step Time =    1.000,SHELL-1,1432,4.69461,4.75,17.3752,ASSEMBLY_SHELL-1_ALLEL,TI,"shell < TI > < 5 section points > : SPOS, (fraction = 1.0)",121.587
C:/Users/srbb21/AppData/Local/Temp/rx18_gr30001521653382.841.odb,RELAX,Increment    105: Step Time =    1.000,SHELL-1,1433,4.69461,5.25,17.3752,ASSEMBLY_SHELL-1_ALLEL,TI,"shell < TI > < 5 section points > : SPOS, (fraction = 1.0)",122.995
C:/Users/srbb21/AppData/Local/Temp/rx18_gr30001521653382.841.odb,RELAX,Increment    105: Step Time =    1.000,SHELL-1,1433,4.69461,5.25,17.3752,ASSEMBLY_SHELL-1_ALLEL,TI,"shell < TI > < 5 section points > : SNEG, (fraction = -1.0)",125.736
C:/Users/srbb21/AppData/Local/Temp/rx18_gr30001521653382.841.odb,RELAX,Increment    105: Step Time =    1.000,SHELL-1,1434,4.69461,5.75,17.3752,ASSEMBLY_SHELL-1_ALLEL,TI,"shell < TI > < 5 section points > : SPOS, (fraction = 1.0)",124.657
C:/Users/srbb21/AppData/Local/Temp/rx18_gr30001521653382.841.odb,RELAX,Increment    105: Step Time =    1.000,SHELL-1,1434,4.69461,5.75,17.3752,ASSEMBLY_SHELL-1_ALLEL,TI,"shell < TI > < 5 section points > : SNEG, (fraction = -1.0)",123.768
C:/Users/srbb21/AppData/Local/Temp/rx18_gr30001521653382.841.odb,RELAX,Increment    105: Step Time =    1.000,SHELL-1,1435,4.69461,6.25,17.3752,ASSEMBLY_SHELL-1_ALLEL,TI,"shell < TI > < 5 section points > : SPOS, (fraction = 1.0)",126.586
C:/Users/srbb21/AppData/Local/Temp/rx18_gr30001521653382.841.odb,RELAX,Increment    105: Step Time =    1.000,SHELL-1,1435,4.69461,6.25,17.3752,ASSEMBLY_SHELL-1_ALLEL,TI,"shell < TI > < 5 section points > : SNEG, (fraction = -1.0)",121.415
C:/Users/srbb21/AppData/Local/Temp/rx18_gr30001521653382.841.odb,RELAX,Increment    105: Step Time =    1.000,SHELL-1,1436,4.69461,6.75,17.3752,ASSEMBLY_SHELL-1_ALLEL,TI,"shell < TI > < 5 section points > : SNEG, (fraction = -1.0)",118.679
C:/Users/srbb21/AppData/Local/Temp/rx18_gr30001521653382.841.odb,RELAX,Increment    105: Step Time =    1.000,SHELL-1,1436,4.69461,6.75,17.3752,ASSEMBLY_SHELL-1_ALLEL,TI,"shell < TI > < 5 section points > : SPOS, (fraction = 1.0)",128.786
C:/Users/srbb21/AppData/Local/Temp/rx18_gr30001521653382.841.odb,RELAX,Increment    105: Step Time =    1.000,SHELL-1,1437,4.69461,7.25,17.3752,ASSEMBLY_SHELL-1_ALLEL,TI,"shell < TI > < 5 section points > : SPOS, (fraction = 1.0)",131.258
C:/Users/srbb21/AppData/Local/Temp/rx18_gr30001521653382.841.odb,RELAX,Increment    105: Step Time =    1.000,SHELL-1,1437,4.69461,7.25,17.3752,ASSEMBLY_SHELL-1_ALLEL,TI,"shell < TI > < 5 section points > : SNEG, (fraction = -1.0)",115.578
C:/Users/srbb21/AppData/Local/Temp/rx18_gr30001521653382.841.odb,RELAX,Increment    105: Step Time =    1.000,SHELL-1,1438,4.69461,7.75,17.3752,ASSEMBLY_SHELL-1_ALLEL,TI,"shell < TI > < 5 section points > : SPOS, (fraction = 1.0)",133.992
C:/Users/srbb21/AppData/Local/Temp/rx18_gr30001521653382.841.odb,RELAX,Increment    105: Step Time =    1.000,SHELL-1,1438,4.69461,7.75,17.3752,ASSEMBLY_SHELL-1_ALLEL,TI,"shell < TI > < 5 section points > : SNEG, (fraction = -1.0)",112.15
C:/Users/srbb21/AppData/Local/Temp/rx18_gr30001521653382.841.odb,RELAX,Increment    105: Step Time =    1.000,SHELL-1,1439,4.69461,8.25,17.3752,ASSEMBLY_SHELL-1_ALLEL,TI,"shell < TI > < 5 section points > : SPOS, (fraction = 1.0)",136.969
C:/Users/srbb21/AppData/Local/Temp/rx18_gr30001521653382.841.odb,RELAX,Increment    105: Step Time =    1.000,SHELL-1,1439,4.69461,8.25,17.3752,ASSEMBLY_SHELL-1_ALLEL,TI,"shell < TI > < 5 section points > : SNEG, (fraction = -1.0)",108.444
C:/Users/srbb21/AppData/Local/Temp/rx18_gr30001521653382.841.odb,RELAX,Increment    105: Step Time =    1.000,SHELL-1,1440,4.69461,8.75,17.3752,ASSEMBLY_SHELL-1_ALLEL,TI,"shell < TI > < 5 section points > : SPOS, (fraction = 1.0)",140.171
C:/Users/srbb21/AppData/Local/Temp/rx18_gr30001521653382.841.odb,RELAX,Increment    105: Step Time =    1.000,SHELL-1,1440,4.69461,8.75,17.3752,ASSEMBLY_SHELL-1_ALLEL,TI,"shell < TI > < 5 section points > : SNEG, (fraction = -1.0)",104.523
C:/Users/srbb21/AppData/Local/Temp/rx18_gr30001521653382.841.odb,RELAX,Increment    105: Step Time =    1.000,SHELL-1,1441,5.17538,-8.75,17.2381,ASSEMBLY_SHELL-1_ALLEL,TI,"shell < TI > < 5 section points > : SNEG, (fraction = -1.0)",103.908
C:/Users/srbb21/AppData/Local/Temp/rx18_gr30001521653382.841.odb,RELAX,Increment    105: Step Time =    1.000,SHELL-1,1441,5.17538,-8.75,17.2381,ASSEMBLY_SHELL-1_ALLEL,TI,"shell < TI > < 5 section points > : SPOS, (fraction = 1.0)",140.331
C:/Users/srbb21/AppData/Local/Temp/rx18_gr30001521653382.841.odb,RELAX,Increment    105: Step Time =    1.000,SHELL-1,1442,5.17538,-8.25,17.2381,ASSEMBLY_SHELL-1_ALLEL,TI,"shell < TI > < 5 section points > : SPOS, (fraction = 1.0)",136.991
C:/Users/srbb21/AppData/Local/Temp/rx18_gr30001521653382.841.odb,RELAX,Increment    105: Step Time =    1.000,SHELL-1,1442,5.17538,-8.25,17.2381,ASSEMBLY_SHELL-1_ALLEL,TI,"shell < TI > < 5 section points > : SNEG, (fraction = -1.0)",108.033
C:/Users/srbb21/AppData/Local/Temp/rx18_gr30001521653382.841.odb,RELAX,Increment    105: Step Time =    1.000,SHELL-1,1443,5.17538,-7.75,17.2381,ASSEMBLY_SHELL-1_ALLEL,TI,"shell < TI > < 5 section points > : SPOS, (fraction = 1.0)",133.878
C:/Users/srbb21/AppData/Local/Temp/rx18_gr30001521653382.841.odb,RELAX,Increment    105: Step Time =    1.000,SHELL-1,1443,5.17538,-7.75,17.2381,ASSEMBLY_SHELL-1_ALLEL,TI,"shell < TI > < 5 section points > : SNEG, (fraction = -1.0)",111.944
C:/Users/srbb21/AppData/Local/Temp/rx18_gr30001521653382.841.odb,RELAX,Increment    105: Step Time =    1.000,SHELL-1,1444,5.17538,-7.25,17.2381,ASSEMBLY_SHELL-1_ALLEL,TI,"shell < TI > < 5 section points > : SPOS, (fraction = 1.0)",131.025
C:/Users/srbb21/AppData/Local/Temp/rx18_gr30001521653382.841.odb,RELAX,Increment    105: Step Time =    1.000,SHELL-1,1444,5.17538,-7.25,17.2381,ASSEMBLY_SHELL-1_ALLEL,TI,"shell < TI > < 5 section points > : SNEG, (fraction = -1.0)",115.562
C:/Users/srbb21/AppData/Local/Temp/rx18_gr30001521653382.841.odb,RELAX,Increment    105: Step Time =    1.000,SHELL-1,1445,5.17538,-6.75,17.2381,ASSEMBLY_SHELL-1_ALLEL,TI,"shell < TI > < 5 section points > : SNEG, (fraction = -1.0)",118.818
C:/Users/srbb21/AppData/Local/Temp/rx18_gr30001521653382.841.odb,RELAX,Increment    105: Step Time =    1.000,SHELL-1,1445,5.17538,-6.75,17.2381,ASSEMBLY_SHELL-1_ALLEL,TI,"shell < TI > < 5 section points > : SPOS, (fraction = 1.0)",128.464
C:/Users/srbb21/AppData/Local/Temp/rx18_gr30001521653382.841.odb,RELAX,Increment    105: Step Time =    1.000,SHELL-1,1446,5.17538,-6.25,17.2381,ASSEMBLY_SHELL-1_ALLEL,TI,"shell < TI > < 5 section points > : SPOS, (fraction = 1.0)",126.21
C:/Users/srbb21/AppData/Local/Temp/rx18_gr30001521653382.841.odb,RELAX,Increment    105: Step Time =    1.000,SHELL-1,1446,5.17538,-6.25,17.2381,ASSEMBLY_SHELL-1_ALLEL,TI,"shell < TI > < 5 section points > : SNEG, (fraction = -1.0)",121.671
C:/Users/srbb21/AppData/Local/Temp/rx18_gr30001521653382.841.odb,RELAX,Increment    105: Step Time =    1.000,SHELL-1,1447,5.17538,-5.75,17.2381,ASSEMBLY_SHELL-1_ALLEL,TI,"shell < TI > < 5 section points > : SPOS, (fraction = 1.0)",124.267
C:/Users/srbb21/AppData/Local/Temp/rx18_gr30001521653382.841.odb,RELAX,Increment    105: Step Time =    1.000,SHELL-1,1447,5.17538,-5.75,17.2381,ASSEMBLY_SHELL-1_ALLEL,TI,"shell < TI > < 5 section points > : SNEG, (fraction = -1.0)",124.096
C:/Users/srbb21/AppData/Local/Temp/rx18_gr30001521653382.841.odb,RELAX,Increment    105: Step Time =    1.000,SHELL-1,1448,5.17538,-5.25,17.2381,ASSEMBLY_SHELL-1_ALLEL,TI,"shell < TI > < 5 section points > : SPOS, (fraction = 1.0)",122.627
C:/Users/srbb21/AppData/Local/Temp/rx18_gr30001521653382.841.odb,RELAX,Increment    105: Step Time =    1.000,SHELL-1,1448,5.17538,-5.25,17.2381,ASSEMBLY_SHELL-1_ALLEL,TI,"shell < TI > < 5 section points > : SNEG, (fraction = -1.0)",126.097
C:/Users/srbb21/AppData/Local/Temp/rx18_gr30001521653382.841.odb,RELAX,Increment    105: Step Time =    1.000,SHELL-1,1449,5.17538,-4.75,17.2381,ASSEMBLY_SHELL-1_ALLEL,TI,"shell < TI > < 5 section points > : SNEG, (fraction = -1.0)",127.696
C:/Users/srbb21/AppData/Local/Temp/rx18_gr30001521653382.841.odb,RELAX,Increment    105: Step Time =    1.000,SHELL-1,1449,5.17538,-4.75,17.2381,ASSEMBLY_SHELL-1_ALLEL,TI,"shell < TI > < 5 section points > : SPOS, (fraction = 1.0)",121.275
C:/Users/srbb21/AppData/Local/Temp/rx18_gr30001521653382.841.odb,RELAX,Increment    105: Step Time =    1.000,SHELL-1,1450,5.17538,-4.25,17.2381,ASSEMBLY_SHELL-1_ALLEL,TI,"shell < TI > < 5 section points > : SPOS, (fraction = 1.0)",120.187
C:/Users/srbb21/AppData/Local/Temp/rx18_gr30001521653382.841.odb,RELAX,Increment    105: Step Time =    1.000,SHELL-1,1450,5.17538,-4.25,17.2381,ASSEMBLY_SHELL-1_ALLEL,TI,"shell < TI > < 5 section points > : SNEG, (fraction = -1.0)",128.93
C:/Users/srbb21/AppData/Local/Temp/rx18_gr30001521653382.841.odb,RELAX,Increment    105: Step Time =    1.000,SHELL-1,1451,5.17538,-3.75,17.2381,ASSEMBLY_SHELL-1_ALLEL,TI,"shell < TI > < 5 section points > : SPOS, (fraction = 1.0)",119.336
C:/Users/srbb21/AppData/Local/Temp/rx18_gr30001521653382.841.odb,RELAX,Increment    105: Step Time =    1.000,SHELL-1,1451,5.17538,-3.75,17.2381,ASSEMBLY_SHELL-1_ALLEL,TI,"shell < TI > < 5 section points > : SNEG, (fraction = -1.0)",129.846
C:/Users/srbb21/AppData/Local/Temp/rx18_gr30001521653382.841.odb,RELAX,Increment    105: Step Time =    1.000,SHELL-1,1452,5.17538,-3.25,17.2381,ASSEMBLY_SHELL-1_ALLEL,TI,"shell < TI > < 5 section points > : SPOS, (fraction = 1.0)",118.691
C:/Users/srbb21/AppData/Local/Temp/rx18_gr30001521653382.841.odb,RELAX,Increment    105: Step Time =    1.000,SHELL-1,1452,5.17538,-3.25,17.2381,ASSEMBLY_SHELL-1_ALLEL,TI,"shell < TI > < 5 section points > : SNEG, (fraction = -1.0)",130.498
C:/Users/srbb21/AppData/Local/Temp/rx18_gr30001521653382.841.odb,RELAX,Increment    105: Step Time =    1.000,SHELL-1,1453,5.17538,-2.75,17.2381,ASSEMBLY_SHELL-1_ALLEL,TI,"shell < TI > < 5 section points > : SNEG, (fraction = -1.0)",130.94
C:/Users/srbb21/AppData/Local/Temp/rx18_gr30001521653382.841.odb,RELAX,Increment    105: Step Time =    1.000,SHELL-1,1453,5.17538,-2.75,17.2381,ASSEMBLY_SHELL-1_ALLEL,TI,"shell < TI > < 5 section points > : SPOS, (fraction = 1.0)",118.22
C:/Users/srbb21/AppData/Local/Temp/rx18_gr30001521653382.841.odb,RELAX,Increment    105: Step Time =    1.000,SHELL-1,1454,5.17538,-2.25,17.2381,ASSEMBLY_SHELL-1_ALLEL,TI,"shell < TI > < 5 section points > : SPOS, (fraction = 1.0)",117.889
C:/Users/srbb21/AppData/Local/Temp/rx18_gr30001521653382.841.odb,RELAX,Increment    105: Step Time =    1.000,SHELL-1,1454,5.17538,-2.25,17.2381,ASSEMBLY_SHELL-1_ALLEL,TI,"shell < TI > < 5 section points > : SNEG, (fraction = -1.0)",131.223
C:/Users/srbb21/AppData/Local/Temp/rx18_gr30001521653382.841.odb,RELAX,Increment    105: Step Time =    1.000,SHELL-1,1455,5.17538,-1.75,17.2381,ASSEMBLY_SHELL-1_ALLEL,TI,"shell < TI > < 5 section points > : SPOS, (fraction = 1.0)",117.668
C:/Users/srbb21/AppData/Local/Temp/rx18_gr30001521653382.841.odb,RELAX,Increment    105: Step Time =    1.000,SHELL-1,1455,5.17538,-1.75,17.2381,ASSEMBLY_SHELL-1_ALLEL,TI,"shell < TI > < 5 section points > : SNEG, (fraction = -1.0)",131.391
C:/Users/srbb21/AppData/Local/Temp/rx18_gr30001521653382.841.odb,RELAX,Increment    105: Step Time =    1.000,SHELL-1,1456,5.17538,-1.25,17.2381,ASSEMBLY_SHELL-1_ALLEL,TI,"shell < TI > < 5 section points > : SPOS, (fraction = 1.0)",117.529
C:/Users/srbb21/AppData/Local/Temp/rx18_gr30001521653382.841.odb,RELAX,Increment    105: Step Time =    1.000,SHELL-1,1456,5.17538,-1.25,17.2381,ASSEMBLY_SHELL-1_ALLEL,TI,"shell < TI > < 5 section points > : SNEG, (fraction = -1.0)",131.484
C:/Users/srbb21/AppData/Local/Temp/rx18_gr30001521653382.841.odb,RELAX,Increment    105: Step Time =    1.000,SHELL-1,1457,5.17538,-0.75,17.2381,ASSEMBLY_SHELL-1_ALLEL,TI,"shell < TI > < 5 section points > : SPOS, (fraction = 1.0)",117.45
C:/Users/srbb21/AppData/Local/Temp/rx18_gr30001521653382.841.odb,RELAX,Increment    105: Step Time =    1.000,SHELL-1,1457,5.17538,-0.75,17.2381,ASSEMBLY_SHELL-1_ALLEL,TI,"shell < TI > < 5 section points > : SNEG, (fraction = -1.0)",131.529
C:/Users/srbb21/AppData/Local/Temp/rx18_gr30001521653382.841.odb,RELAX,Increment    105: Step Time =    1.000,SHELL-1,1458,5.17538,-0.25,17.2381,ASSEMBLY_SHELL-1_ALLEL,TI,"shell < TI > < 5 section points > : SNEG, (fraction = -1.0)",131.547
C:/Users/srbb21/AppData/Local/Temp/rx18_gr30001521653382.841.odb,RELAX,Increment    105: Step Time =    1.000,SHELL-1,1458,5.17538,-0.25,17.2381,ASSEMBLY_SHELL-1_ALLEL,TI,"shell < TI > < 5 section points > : SPOS, (fraction = 1.0)",117.414
C:/Users/srbb21/AppData/Local/Temp/rx18_gr30001521653382.841.odb,RELAX,Increment    105: Step Time =    1.000,SHELL-1,1459,5.17538,0.25,17.2381,ASSEMBLY_SHELL-1_ALLEL,TI,"shell < TI > < 5 section points > : SPOS, (fraction = 1.0)",117.414
C:/Users/srbb21/AppData/Local/Temp/rx18_gr30001521653382.841.odb,RELAX,Increment    105: Step Time =    1.000,SHELL-1,1459,5.17538,0.25,17.2381,ASSEMBLY_SHELL-1_ALLEL,TI,"shell < TI > < 5 section points > : SNEG, (fraction = -1.0)",131.547
C:/Users/srbb21/AppData/Local/Temp/rx18_gr30001521653382.841.odb,RELAX,Increment    105: Step Time =    1.000,SHELL-1,1460,5.17538,0.75,17.2381,ASSEMBLY_SHELL-1_ALLEL,TI,"shell < TI > < 5 section points > : SPOS, (fraction = 1.0)",117.45
C:/Users/srbb21/AppData/Local/Temp/rx18_gr30001521653382.841.odb,RELAX,Increment    105: Step Time =    1.000,SHELL-1,1460,5.17538,0.75,17.2381,ASSEMBLY_SHELL-1_ALLEL,TI,"shell < TI > < 5 section points > : SNEG, (fraction = -1.0)",131.529
C:/Users/srbb21/AppData/Local/Temp/rx18_gr30001521653382.841.odb,RELAX,Increment    105: Step Time =    1.000,SHELL-1,1461,5.17538,1.25,17.2381,ASSEMBLY_SHELL-1_ALLEL,TI,"shell < TI > < 5 section points > : SPOS, (fraction = 1.0)",117.529
C:/Users/srbb21/AppData/Local/Temp/rx18_gr30001521653382.841.odb,RELAX,Increment    105: Step Time =    1.000,SHELL-1,1461,5.17538,1.25,17.2381,ASSEMBLY_SHELL-1_ALLEL,TI,"shell < TI > < 5 section points > : SNEG, (fraction = -1.0)",131.484
C:/Users/srbb21/AppData/Local/Temp/rx18_gr30001521653382.841.odb,RELAX,Increment    105: Step Time =    1.000,SHELL-1,1462,5.17538,1.75,17.2381,ASSEMBLY_SHELL-1_ALLEL,TI,"shell < TI > < 5 section points > : SNEG, (fraction = -1.0)",131.391
C:/Users/srbb21/AppData/Local/Temp/rx18_gr30001521653382.841.odb,RELAX,Increment    105: Step Time =    1.000,SHELL-1,1462,5.17538,1.75,17.2381,ASSEMBLY_SHELL-1_ALLEL,TI,"shell < TI > < 5 section points > : SPOS, (fraction = 1.0)",117.668
C:/Users/srbb21/AppData/Local/Temp/rx18_gr30001521653382.841.odb,RELAX,Increment    105: Step Time =    1.000,SHELL-1,1463,5.17538,2.25,17.2381,ASSEMBLY_SHELL-1_ALLEL,TI,"shell < TI > < 5 section points > : SPOS, (fraction = 1.0)",117.889
C:/Users/srbb21/AppData/Local/Temp/rx18_gr30001521653382.841.odb,RELAX,Increment    105: Step Time =    1.000,SHELL-1,1463,5.17538,2.25,17.2381,ASSEMBLY_SHELL-1_ALLEL,TI,"shell < TI > < 5 section points > : SNEG, (fraction = -1.0)",131.223
C:/Users/srbb21/AppData/Local/Temp/rx18_gr30001521653382.841.odb,RELAX,Increment    105: Step Time =    1.000,SHELL-1,1464,5.17538,2.75,17.2381,ASSEMBLY_SHELL-1_ALLEL,TI,"shell < TI > < 5 section points > : SPOS, (fraction = 1.0)",118.22
C:/Users/srbb21/AppData/Local/Temp/rx18_gr30001521653382.841.odb,RELAX,Increment    105: Step Time =    1.000,SHELL-1,1464,5.17538,2.75,17.2381,ASSEMBLY_SHELL-1_ALLEL,TI,"shell < TI > < 5 section points > : SNEG, (fraction = -1.0)",130.94
C:/Users/srbb21/AppData/Local/Temp/rx18_gr30001521653382.841.odb,RELAX,Increment    105: Step Time =    1.000,SHELL-1,1465,5.17538,3.25,17.2381,ASSEMBLY_SHELL-1_ALLEL,TI,"shell < TI > < 5 section points > : SPOS, (fraction = 1.0)",118.691
C:/Users/srbb21/AppData/Local/Temp/rx18_gr30001521653382.841.odb,RELAX,Increment    105: Step Time =    1.000,SHELL-1,1465,5.17538,3.25,17.2381,ASSEMBLY_SHELL-1_ALLEL,TI,"shell < TI > < 5 section points > : SNEG, (fraction = -1.0)",130.498
C:/Users/srbb21/AppData/Local/Temp/rx18_gr30001521653382.841.odb,RELAX,Increment    105: Step Time =    1.000,SHELL-1,1466,5.17538,3.75,17.2381,ASSEMBLY_SHELL-1_ALLEL,TI,"shell < TI > < 5 section points > : SNEG, (fraction = -1.0)",129.846
C:/Users/srbb21/AppData/Local/Temp/rx18_gr30001521653382.841.odb,RELAX,Increment    105: Step Time =    1.000,SHELL-1,1466,5.17538,3.75,17.2381,ASSEMBLY_SHELL-1_ALLEL,TI,"shell < TI > < 5 section points > : SPOS, (fraction = 1.0)",119.336
C:/Users/srbb21/AppData/Local/Temp/rx18_gr30001521653382.841.odb,RELAX,Increment    105: Step Time =    1.000,SHELL-1,1467,5.17538,4.25,17.2381,ASSEMBLY_SHELL-1_ALLEL,TI,"shell < TI > < 5 section points > : SPOS, (fraction = 1.0)",120.187
C:/Users/srbb21/AppData/Local/Temp/rx18_gr30001521653382.841.odb,RELAX,Increment    105: Step Time =    1.000,SHELL-1,1467,5.17538,4.25,17.2381,ASSEMBLY_SHELL-1_ALLEL,TI,"shell < TI > < 5 section points > : SNEG, (fraction = -1.0)",128.93
C:/Users/srbb21/AppData/Local/Temp/rx18_gr30001521653382.841.odb,RELAX,Increment    105: Step Time =    1.000,SHELL-1,1468,5.17538,4.75,17.2381,ASSEMBLY_SHELL-1_ALLEL,TI,"shell < TI > < 5 section points > : SPOS, (fraction = 1.0)",121.275
C:/Users/srbb21/AppData/Local/Temp/rx18_gr30001521653382.841.odb,RELAX,Increment    105: Step Time =    1.000,SHELL-1,1468,5.17538,4.75,17.2381,ASSEMBLY_SHELL-1_ALLEL,TI,"shell < TI > < 5 section points > : SNEG, (fraction = -1.0)",127.696
C:/Users/srbb21/AppData/Local/Temp/rx18_gr30001521653382.841.odb,RELAX,Increment    105: Step Time =    1.000,SHELL-1,1469,5.17538,5.25,17.2381,ASSEMBLY_SHELL-1_ALLEL,TI,"shell < TI > < 5 section points > : SPOS, (fraction = 1.0)",122.627
C:/Users/srbb21/AppData/Local/Temp/rx18_gr30001521653382.841.odb,RELAX,Increment    105: Step Time =    1.000,SHELL-1,1469,5.17538,5.25,17.2381,ASSEMBLY_SHELL-1_ALLEL,TI,"shell < TI > < 5 section points > : SNEG, (fraction = -1.0)",126.097
C:/Users/srbb21/AppData/Local/Temp/rx18_gr30001521653382.841.odb,RELAX,Increment    105: Step Time =    1.000,SHELL-1,1470,5.17538,5.75,17.2381,ASSEMBLY_SHELL-1_ALLEL,TI,"shell < TI > < 5 section points > : SNEG, (fraction = -1.0)",124.096
C:/Users/srbb21/AppData/Local/Temp/rx18_gr30001521653382.841.odb,RELAX,Increment    105: Step Time =    1.000,SHELL-1,1470,5.17538,5.75,17.2381,ASSEMBLY_SHELL-1_ALLEL,TI,"shell < TI > < 5 section points > : SPOS, (fraction = 1.0)",124.267
C:/Users/srbb21/AppData/Local/Temp/rx18_gr30001521653382.841.odb,RELAX,Increment    105: Step Time =    1.000,SHELL-1,1471,5.17538,6.25,17.2381,ASSEMBLY_SHELL-1_ALLEL,TI,"shell < TI > < 5 section points > : SPOS, (fraction = 1.0)",126.21
C:/Users/srbb21/AppData/Local/Temp/rx18_gr30001521653382.841.odb,RELAX,Increment    105: Step Time =    1.000,SHELL-1,1471,5.17538,6.25,17.2381,ASSEMBLY_SHELL-1_ALLEL,TI,"shell < TI > < 5 section points > : SNEG, (fraction = -1.0)",121.671
C:/Users/srbb21/AppData/Local/Temp/rx18_gr30001521653382.841.odb,RELAX,Increment    105: Step Time =    1.000,SHELL-1,1472,5.17538,6.75,17.2381,ASSEMBLY_SHELL-1_ALLEL,TI,"shell < TI > < 5 section points > : SPOS, (fraction = 1.0)",128.464
C:/Users/srbb21/AppData/Local/Temp/rx18_gr30001521653382.841.odb,RELAX,Increment    105: Step Time =    1.000,SHELL-1,1472,5.17538,6.75,17.2381,ASSEMBLY_SHELL-1_ALLEL,TI,"shell < TI > < 5 section points > : SNEG, (fraction = -1.0)",118.818
C:/Users/srbb21/AppData/Local/Temp/rx18_gr30001521653382.841.odb,RELAX,Increment    105: Step Time =    1.000,SHELL-1,1473,5.17538,7.25,17.2381,ASSEMBLY_SHELL-1_ALLEL,TI,"shell < TI > < 5 section points > : SPOS, (fraction = 1.0)",131.025
C:/Users/srbb21/AppData/Local/Temp/rx18_gr30001521653382.841.odb,RELAX,Increment    105: Step Time =    1.000,SHELL-1,1473,5.17538,7.25,17.2381,ASSEMBLY_SHELL-1_ALLEL,TI,"shell < TI > < 5 section points > : SNEG, (fraction = -1.0)",115.562
C:/Users/srbb21/AppData/Local/Temp/rx18_gr30001521653382.841.odb,RELAX,Increment    105: Step Time =    1.000,SHELL-1,1474,5.17538,7.75,17.2381,ASSEMBLY_SHELL-1_ALLEL,TI,"shell < TI > < 5 section points > : SNEG, (fraction = -1.0)",111.944
C:/Users/srbb21/AppData/Local/Temp/rx18_gr30001521653382.841.odb,RELAX,Increment    105: Step Time =    1.000,SHELL-1,1474,5.17538,7.75,17.2381,ASSEMBLY_SHELL-1_ALLEL,TI,"shell < TI > < 5 section points > : SPOS, (fraction = 1.0)",133.878
C:/Users/srbb21/AppData/Local/Temp/rx18_gr30001521653382.841.odb,RELAX,Increment    105: Step Time =    1.000,SHELL-1,1475,5.17538,8.25,17.2381,ASSEMBLY_SHELL-1_ALLEL,TI,"shell < TI > < 5 section points > : SPOS, (fraction = 1.0)",136.991
C:/Users/srbb21/AppData/Local/Temp/rx18_gr30001521653382.841.odb,RELAX,Increment    105: Step Time =    1.000,SHELL-1,1475,5.17538,8.25,17.2381,ASSEMBLY_SHELL-1_ALLEL,TI,"shell < TI > < 5 section points > : SNEG, (fraction = -1.0)",108.033
C:/Users/srbb21/AppData/Local/Temp/rx18_gr30001521653382.841.odb,RELAX,Increment    105: Step Time =    1.000,SHELL-1,1476,5.17538,8.75,17.2381,ASSEMBLY_SHELL-1_ALLEL,TI,"shell < TI > < 5 section points > : SPOS, (fraction = 1.0)",140.331
C:/Users/srbb21/AppData/Local/Temp/rx18_gr30001521653382.841.odb,RELAX,Increment    105: Step Time =    1.000,SHELL-1,1476,5.17538,8.75,17.2381,ASSEMBLY_SHELL-1_ALLEL,TI,"shell < TI > < 5 section points > : SNEG, (fraction = -1.0)",103.908
C:/Users/srbb21/AppData/Local/Temp/rx18_gr30001521653382.841.odb,RELAX,Increment    105: Step Time =    1.000,SHELL-1,1477,5.65216,-8.75,17.0877,ASSEMBLY_SHELL-1_ALLEL,TI,"shell < TI > < 5 section points > : SPOS, (fraction = 1.0)",140.569
C:/Users/srbb21/AppData/Local/Temp/rx18_gr30001521653382.841.odb,RELAX,Increment    105: Step Time =    1.000,SHELL-1,1477,5.65216,-8.75,17.0877,ASSEMBLY_SHELL-1_ALLEL,TI,"shell < TI > < 5 section points > : SNEG, (fraction = -1.0)",103.181
C:/Users/srbb21/AppData/Local/Temp/rx18_gr30001521653382.841.odb,RELAX,Increment    105: Step Time =    1.000,SHELL-1,1478,5.65216,-8.25,17.0877,ASSEMBLY_SHELL-1_ALLEL,TI,"shell < TI > < 5 section points > : SNEG, (fraction = -1.0)",107.557
C:/Users/srbb21/AppData/Local/Temp/rx18_gr30001521653382.841.odb,RELAX,Increment    105: Step Time =    1.000,SHELL-1,1478,5.65216,-8.25,17.0877,ASSEMBLY_SHELL-1_ALLEL,TI,"shell < TI > < 5 section points > : SPOS, (fraction = 1.0)",137.055
C:/Users/srbb21/AppData/Local/Temp/rx18_gr30001521653382.841.odb,RELAX,Increment    105: Step Time =    1.000,SHELL-1,1479,5.65216,-7.75,17.0877,ASSEMBLY_SHELL-1_ALLEL,TI,"shell < TI > < 5 section points > : SPOS, (fraction = 1.0)",133.77
C:/Users/srbb21/AppData/Local/Temp/rx18_gr30001521653382.841.odb,RELAX,Increment    105: Step Time =    1.000,SHELL-1,1479,5.65216,-7.75,17.0877,ASSEMBLY_SHELL-1_ALLEL,TI,"shell < TI > < 5 section points > : SNEG, (fraction = -1.0)",111.725
C:/Users/srbb21/AppData/Local/Temp/rx18_gr30001521653382.841.odb,RELAX,Increment    105: Step Time =    1.000,SHELL-1,1480,5.65216,-7.25,17.0877,ASSEMBLY_SHELL-1_ALLEL,TI,"shell < TI > < 5 section points > : SPOS, (fraction = 1.0)",130.771
C:/Users/srbb21/AppData/Local/Temp/rx18_gr30001521653382.841.odb,RELAX,Increment    105: Step Time =    1.000,SHELL-1,1480,5.65216,-7.25,17.0877,ASSEMBLY_SHELL-1_ALLEL,TI,"shell < TI > < 5 section points > : SNEG, (fraction = -1.0)",115.574
C:/Users/srbb21/AppData/Local/Temp/rx18_gr30001521653382.841.odb,RELAX,Increment    105: Step Time =    1.000,SHELL-1,1481,5.65216,-6.75,17.0877,ASSEMBLY_SHELL-1_ALLEL,TI,"shell < TI > < 5 section points > : SPOS, (fraction = 1.0)",128.106
C:/Users/srbb21/AppData/Local/Temp/rx18_gr30001521653382.841.odb,RELAX,Increment    105: Step Time =    1.000,SHELL-1,1481,5.65216,-6.75,17.0877,ASSEMBLY_SHELL-1_ALLEL,TI,"shell < TI > < 5 section points > : SNEG, (fraction = -1.0)",119.021
C:/Users/srbb21/AppData/Local/Temp/rx18_gr30001521653382.841.odb,RELAX,Increment    105: Step Time =    1.000,SHELL-1,1482,5.65216,-6.25,17.0877,ASSEMBLY_SHELL-1_ALLEL,TI,"shell < TI > < 5 section points > : SNEG, (fraction = -1.0)",122.011
C:/Users/srbb21/AppData/Local/Temp/rx18_gr30001521653382.841.odb,RELAX,Increment    105: Step Time =    1.000,SHELL-1,1482,5.65216,-6.25,17.0877,ASSEMBLY_SHELL-1_ALLEL,TI,"shell < TI > < 5 section points > : SPOS, (fraction = 1.0)",125.795
C:/Users/srbb21/AppData/Local/Temp/rx18_gr30001521653382.841.odb,RELAX,Increment    105: Step Time =    1.000,SHELL-1,1483,5.65216,-5.75,17.0877,ASSEMBLY_SHELL-1_ALLEL,TI,"shell < TI > < 5 section points > : SPOS, (fraction = 1.0)",123.846
C:/Users/srbb21/AppData/Local/Temp/rx18_gr30001521653382.841.odb,RELAX,Increment    105: Step Time =    1.000,SHELL-1,1483,5.65216,-5.75,17.0877,ASSEMBLY_SHELL-1_ALLEL,TI,"shell < TI > < 5 section points > : SNEG, (fraction = -1.0)",124.523
C:/Users/srbb21/AppData/Local/Temp/rx18_gr30001521653382.841.odb,RELAX,Increment    105: Step Time =    1.000,SHELL-1,1484,5.65216,-5.25,17.0877,ASSEMBLY_SHELL-1_ALLEL,TI,"shell < TI > < 5 section points > : SPOS, (fraction = 1.0)",122.246
C:/Users/srbb21/AppData/Local/Temp/rx18_gr30001521653382.841.odb,RELAX,Increment    105: Step Time =    1.000,SHELL-1,1484,5.65216,-5.25,17.0877,ASSEMBLY_SHELL-1_ALLEL,TI,"shell < TI > < 5 section points > : SNEG, (fraction = -1.0)",126.563
C:/Users/srbb21/AppData/Local/Temp/rx18_gr30001521653382.841.odb,RELAX,Increment    105: Step Time =    1.000,SHELL-1,1485,5.65216,-4.75,17.0877,ASSEMBLY_SHELL-1_ALLEL,TI,"shell < TI > < 5 section points > : SPOS, (fraction = 1.0)",120.973
C:/Users/srbb21/AppData/Local/Temp/rx18_gr30001521653382.841.odb,RELAX,Increment    105: Step Time =    1.000,SHELL-1,1485,5.65216,-4.75,17.0877,ASSEMBLY_SHELL-1_ALLEL,TI,"shell < TI > < 5 section points > : SNEG, (fraction = -1.0)",128.162
C:/Users/srbb21/AppData/Local/Temp/rx18_gr30001521653382.841.odb,RELAX,Increment    105: Step Time =    1.000,SHELL-1,1486,5.65216,-4.25,17.0877,ASSEMBLY_SHELL-1_ALLEL,TI,"shell < TI > < 5 section points > : SNEG, (fraction = -1.0)",129.367
C:/Users/srbb21/AppData/Local/Temp/rx18_gr30001521653382.841.odb,RELAX,Increment    105: Step Time =    1.000,SHELL-1,1486,5.65216,-4.25,17.0877,ASSEMBLY_SHELL-1_ALLEL,TI,"shell < TI > < 5 section points > : SPOS, (fraction = 1.0)",119.995
C:/Users/srbb21/AppData/Local/Temp/rx18_gr30001521653382.841.odb,RELAX,Increment    105: Step Time =    1.000,SHELL-1,1487,5.65216,-3.75,17.0877,ASSEMBLY_SHELL-1_ALLEL,TI,"shell < TI > < 5 section points > : SPOS, (fraction = 1.0)",119.275
C:/Users/srbb21/AppData/Local/Temp/rx18_gr30001521653382.841.odb,RELAX,Increment    105: Step Time =    1.000,SHELL-1,1487,5.65216,-3.75,17.0877,ASSEMBLY_SHELL-1_ALLEL,TI,"shell < TI > < 5 section points > : SNEG, (fraction = -1.0)",130.236
C:/Users/srbb21/AppData/Local/Temp/rx18_gr30001521653382.841.odb,RELAX,Increment    105: Step Time =    1.000,SHELL-1,1488,5.65216,-3.25,17.0877,ASSEMBLY_SHELL-1_ALLEL,TI,"shell < TI > < 5 section points > : SPOS, (fraction = 1.0)",118.77
C:/Users/srbb21/AppData/Local/Temp/rx18_gr30001521653382.841.odb,RELAX,Increment    105: Step Time =    1.000,SHELL-1,1488,5.65216,-3.25,17.0877,ASSEMBLY_SHELL-1_ALLEL,TI,"shell < TI > < 5 section points > : SNEG, (fraction = -1.0)",130.83
C:/Users/srbb21/AppData/Local/Temp/rx18_gr30001521653382.841.odb,RELAX,Increment    105: Step Time =    1.000,SHELL-1,1489,5.65216,-2.75,17.0877,ASSEMBLY_SHELL-1_ALLEL,TI,"shell < TI > < 5 section points > : SPOS, (fraction = 1.0)",118.439
C:/Users/srbb21/AppData/Local/Temp/rx18_gr30001521653382.841.odb,RELAX,Increment    105: Step Time =    1.000,SHELL-1,1489,5.65216,-2.75,17.0877,ASSEMBLY_SHELL-1_ALLEL,TI,"shell < TI > < 5 section points > : SNEG, (fraction = -1.0)",131.212
C:/Users/srbb21/AppData/Local/Temp/rx18_gr30001521653382.841.odb,RELAX,Increment    105: Step Time =    1.000,SHELL-1,1490,5.65216,-2.25,17.0877,ASSEMBLY_SHELL-1_ALLEL,TI,"shell < TI > < 5 section points > : SPOS, (fraction = 1.0)",118.241
C:/Users/srbb21/AppData/Local/Temp/rx18_gr30001521653382.841.odb,RELAX,Increment    105: Step Time =    1.000,SHELL-1,1490,5.65216,-2.25,17.0877,ASSEMBLY_SHELL-1_ALLEL,TI,"shell < TI > < 5 section points > : SNEG, (fraction = -1.0)",131.438
C:/Users/srbb21/AppData/Local/Temp/rx18_gr30001521653382.841.odb,RELAX,Increment    105: Step Time =    1.000,SHELL-1,1491,5.65216,-1.75,17.0877,ASSEMBLY_SHELL-1_ALLEL,TI,"shell < TI > < 5 section points > : SNEG, (fraction = -1.0)",131.557
C:/Users/srbb21/AppData/Local/Temp/rx18_gr30001521653382.841.odb,RELAX,Increment    105: Step Time =    1.000,SHELL-1,1491,5.65216,-1.75,17.0877,ASSEMBLY_SHELL-1_ALLEL,TI,"shell < TI > < 5 section points > : SPOS, (fraction = 1.0)",118.135
C:/Users/srbb21/AppData/Local/Temp/rx18_gr30001521653382.841.odb,RELAX,Increment    105: Step Time =    1.000,SHELL-1,1492,5.65216,-1.25,17.0877,ASSEMBLY_SHELL-1_ALLEL,TI,"shell < TI > < 5 section points > : SPOS, (fraction = 1.0)",118.088
C:/Users/srbb21/AppData/Local/Temp/rx18_gr30001521653382.841.odb,RELAX,Increment    105: Step Time =    1.000,SHELL-1,1492,5.65216,-1.25,17.0877,ASSEMBLY_SHELL-1_ALLEL,TI,"shell < TI > < 5 section points > : SNEG, (fraction = -1.0)",131.611
C:/Users/srbb21/AppData/Local/Temp/rx18_gr30001521653382.841.odb,RELAX,Increment    105: Step Time =    1.000,SHELL-1,1493,5.65216,-0.75,17.0877,ASSEMBLY_SHELL-1_ALLEL,TI,"shell < TI > < 5 section points > : SPOS, (fraction = 1.0)",118.073
C:/Users/srbb21/AppData/Local/Temp/rx18_gr30001521653382.841.odb,RELAX,Increment    105: Step Time =    1.000,SHELL-1,1493,5.65216,-0.75,17.0877,ASSEMBLY_SHELL-1_ALLEL,TI,"shell < TI > < 5 section points > : SNEG, (fraction = -1.0)",131.629
C:/Users/srbb21/AppData/Local/Temp/rx18_gr30001521653382.841.odb,RELAX,Increment    105: Step Time =    1.000,SHELL-1,1494,5.65216,-0.25,17.0877,ASSEMBLY_SHELL-1_ALLEL,TI,"shell < TI > < 5 section points > : SPOS, (fraction = 1.0)",118.071
C:/Users/srbb21/AppData/Local/Temp/rx18_gr30001521653382.841.odb,RELAX,Increment    105: Step Time =    1.000,SHELL-1,1494,5.65216,-0.25,17.0877,ASSEMBLY_SHELL-1_ALLEL,TI,"shell < TI > < 5 section points > : SNEG, (fraction = -1.0)",131.633
C:/Users/srbb21/AppData/Local/Temp/rx18_gr30001521653382.841.odb,RELAX,Increment    105: Step Time =    1.000,SHELL-1,1495,5.65216,0.25,17.0877,ASSEMBLY_SHELL-1_ALLEL,TI,"shell < TI > < 5 section points > : SNEG, (fraction = -1.0)",131.633
C:/Users/srbb21/AppData/Local/Temp/rx18_gr30001521653382.841.odb,RELAX,Increment    105: Step Time =    1.000,SHELL-1,1495,5.65216,0.25,17.0877,ASSEMBLY_SHELL-1_ALLEL,TI,"shell < TI > < 5 section points > : SPOS, (fraction = 1.0)",118.071
C:/Users/srbb21/AppData/Local/Temp/rx18_gr30001521653382.841.odb,RELAX,Increment    105: Step Time =    1.000,SHELL-1,1496,5.65216,0.75,17.0877,ASSEMBLY_SHELL-1_ALLEL,TI,"shell < TI > < 5 section points > : SPOS, (fraction = 1.0)",118.073
C:/Users/srbb21/AppData/Local/Temp/rx18_gr30001521653382.841.odb,RELAX,Increment    105: Step Time =    1.000,SHELL-1,1496,5.65216,0.75,17.0877,ASSEMBLY_SHELL-1_ALLEL,TI,"shell < TI > < 5 section points > : SNEG, (fraction = -1.0)",131.629
C:/Users/srbb21/AppData/Local/Temp/rx18_gr30001521653382.841.odb,RELAX,Increment    105: Step Time =    1.000,SHELL-1,1497,5.65216,1.25,17.0877,ASSEMBLY_SHELL-1_ALLEL,TI,"shell < TI > < 5 section points > : SPOS, (fraction = 1.0)",118.088
C:/Users/srbb21/AppData/Local/Temp/rx18_gr30001521653382.841.odb,RELAX,Increment    105: Step Time =    1.000,SHELL-1,1497,5.65216,1.25,17.0877,ASSEMBLY_SHELL-1_ALLEL,TI,"shell < TI > < 5 section points > : SNEG, (fraction = -1.0)",131.611
C:/Users/srbb21/AppData/Local/Temp/rx18_gr30001521653382.841.odb,RELAX,Increment    105: Step Time =    1.000,SHELL-1,1498,5.65216,1.75,17.0877,ASSEMBLY_SHELL-1_ALLEL,TI,"shell < TI > < 5 section points > : SPOS, (fraction = 1.0)",118.135
C:/Users/srbb21/AppData/Local/Temp/rx18_gr30001521653382.841.odb,RELAX,Increment    105: Step Time =    1.000,SHELL-1,1498,5.65216,1.75,17.0877,ASSEMBLY_SHELL-1_ALLEL,TI,"shell < TI > < 5 section points > : SNEG, (fraction = -1.0)",131.557
C:/Users/srbb21/AppData/Local/Temp/rx18_gr30001521653382.841.odb,RELAX,Increment    105: Step Time =    1.000,SHELL-1,1499,5.65216,2.25,17.0877,ASSEMBLY_SHELL-1_ALLEL,TI,"shell < TI > < 5 section points > : SNEG, (fraction = -1.0)",131.438
C:/Users/srbb21/AppData/Local/Temp/rx18_gr30001521653382.841.odb,RELAX,Increment    105: Step Time =    1.000,SHELL-1,1499,5.65216,2.25,17.0877,ASSEMBLY_SHELL-1_ALLEL,TI,"shell < TI > < 5 section points > : SPOS, (fraction = 1.0)",118.241
C:/Users/srbb21/AppData/Local/Temp/rx18_gr30001521653382.841.odb,RELAX,Increment    105: Step Time =    1.000,SHELL-1,1500,5.65216,2.75,17.0877,ASSEMBLY_SHELL-1_ALLEL,TI,"shell < TI > < 5 section points > : SPOS, (fraction = 1.0)",118.439
C:/Users/srbb21/AppData/Local/Temp/rx18_gr30001521653382.841.odb,RELAX,Increment    105: Step Time =    1.000,SHELL-1,1500,5.65216,2.75,17.0877,ASSEMBLY_SHELL-1_ALLEL,TI,"shell < TI > < 5 section points > : SNEG, (fraction = -1.0)",131.212
C:/Users/srbb21/AppData/Local/Temp/rx18_gr30001521653382.841.odb,RELAX,Increment    105: Step Time =    1.000,SHELL-1,1501,5.65216,3.25,17.0877,ASSEMBLY_SHELL-1_ALLEL,TI,"shell < TI > < 5 section points > : SPOS, (fraction = 1.0)",118.77
C:/Users/srbb21/AppData/Local/Temp/rx18_gr30001521653382.841.odb,RELAX,Increment    105: Step Time =    1.000,SHELL-1,1501,5.65216,3.25,17.0877,ASSEMBLY_SHELL-1_ALLEL,TI,"shell < TI > < 5 section points > : SNEG, (fraction = -1.0)",130.83
C:/Users/srbb21/AppData/Local/Temp/rx18_gr30001521653382.841.odb,RELAX,Increment    105: Step Time =    1.000,SHELL-1,1502,5.65216,3.75,17.0877,ASSEMBLY_SHELL-1_ALLEL,TI,"shell < TI > < 5 section points > : SPOS, (fraction = 1.0)",119.275
C:/Users/srbb21/AppData/Local/Temp/rx18_gr30001521653382.841.odb,RELAX,Increment    105: Step Time =    1.000,SHELL-1,1502,5.65216,3.75,17.0877,ASSEMBLY_SHELL-1_ALLEL,TI,"shell < TI > < 5 section points > : SNEG, (fraction = -1.0)",130.236
C:/Users/srbb21/AppData/Local/Temp/rx18_gr30001521653382.841.odb,RELAX,Increment    105: Step Time =    1.000,SHELL-1,1503,5.65216,4.25,17.0877,ASSEMBLY_SHELL-1_ALLEL,TI,"shell < TI > < 5 section points > : SNEG, (fraction = -1.0)",129.367
C:/Users/srbb21/AppData/Local/Temp/rx18_gr30001521653382.841.odb,RELAX,Increment    105: Step Time =    1.000,SHELL-1,1503,5.65216,4.25,17.0877,ASSEMBLY_SHELL-1_ALLEL,TI,"shell < TI > < 5 section points > : SPOS, (fraction = 1.0)",119.995
C:/Users/srbb21/AppData/Local/Temp/rx18_gr30001521653382.841.odb,RELAX,Increment    105: Step Time =    1.000,SHELL-1,1504,5.65216,4.75,17.0877,ASSEMBLY_SHELL-1_ALLEL,TI,"shell < TI > < 5 section points > : SPOS, (fraction = 1.0)",120.973
C:/Users/srbb21/AppData/Local/Temp/rx18_gr30001521653382.841.odb,RELAX,Increment    105: Step Time =    1.000,SHELL-1,1504,5.65216,4.75,17.0877,ASSEMBLY_SHELL-1_ALLEL,TI,"shell < TI > < 5 section points > : SNEG, (fraction = -1.0)",128.162
C:/Users/srbb21/AppData/Local/Temp/rx18_gr30001521653382.841.odb,RELAX,Increment    105: Step Time =    1.000,SHELL-1,1505,5.65216,5.25,17.0877,ASSEMBLY_SHELL-1_ALLEL,TI,"shell < TI > < 5 section points > : SPOS, (fraction = 1.0)",122.246
C:/Users/srbb21/AppData/Local/Temp/rx18_gr30001521653382.841.odb,RELAX,Increment    105: Step Time =    1.000,SHELL-1,1505,5.65216,5.25,17.0877,ASSEMBLY_SHELL-1_ALLEL,TI,"shell < TI > < 5 section points > : SNEG, (fraction = -1.0)",126.563
C:/Users/srbb21/AppData/Local/Temp/rx18_gr30001521653382.841.odb,RELAX,Increment    105: Step Time =    1.000,SHELL-1,1506,5.65216,5.75,17.0877,ASSEMBLY_SHELL-1_ALLEL,TI,"shell < TI > < 5 section points > : SPOS, (fraction = 1.0)",123.846
C:/Users/srbb21/AppData/Local/Temp/rx18_gr30001521653382.841.odb,RELAX,Increment    105: Step Time =    1.000,SHELL-1,1506,5.65216,5.75,17.0877,ASSEMBLY_SHELL-1_ALLEL,TI,"shell < TI > < 5 section points > : SNEG, (fraction = -1.0)",124.523
C:/Users/srbb21/AppData/Local/Temp/rx18_gr30001521653382.841.odb,RELAX,Increment    105: Step Time =    1.000,SHELL-1,1507,5.65216,6.25,17.0877,ASSEMBLY_SHELL-1_ALLEL,TI,"shell < TI > < 5 section points > : SPOS, (fraction = 1.0)",125.795
C:/Users/srbb21/AppData/Local/Temp/rx18_gr30001521653382.841.odb,RELAX,Increment    105: Step Time =    1.000,SHELL-1,1507,5.65216,6.25,17.0877,ASSEMBLY_SHELL-1_ALLEL,TI,"shell < TI > < 5 section points > : SNEG, (fraction = -1.0)",122.011
C:/Users/srbb21/AppData/Local/Temp/rx18_gr30001521653382.841.odb,RELAX,Increment    105: Step Time =    1.000,SHELL-1,1508,5.65216,6.75,17.0877,ASSEMBLY_SHELL-1_ALLEL,TI,"shell < TI > < 5 section points > : SNEG, (fraction = -1.0)",119.021
C:/Users/srbb21/AppData/Local/Temp/rx18_gr30001521653382.841.odb,RELAX,Increment    105: Step Time =    1.000,SHELL-1,1508,5.65216,6.75,17.0877,ASSEMBLY_SHELL-1_ALLEL,TI,"shell < TI > < 5 section points > : SPOS, (fraction = 1.0)",128.106
C:/Users/srbb21/AppData/Local/Temp/rx18_gr30001521653382.841.odb,RELAX,Increment    105: Step Time =    1.000,SHELL-1,1509,5.65216,7.25,17.0877,ASSEMBLY_SHELL-1_ALLEL,TI,"shell < TI > < 5 section points > : SPOS, (fraction = 1.0)",130.771
C:/Users/srbb21/AppData/Local/Temp/rx18_gr30001521653382.841.odb,RELAX,Increment    105: Step Time =    1.000,SHELL-1,1509,5.65216,7.25,17.0877,ASSEMBLY_SHELL-1_ALLEL,TI,"shell < TI > < 5 section points > : SNEG, (fraction = -1.0)",115.574
C:/Users/srbb21/AppData/Local/Temp/rx18_gr30001521653382.841.odb,RELAX,Increment    105: Step Time =    1.000,SHELL-1,1510,5.65216,7.75,17.0877,ASSEMBLY_SHELL-1_ALLEL,TI,"shell < TI > < 5 section points > : SPOS, (fraction = 1.0)",133.77
C:/Users/srbb21/AppData/Local/Temp/rx18_gr30001521653382.841.odb,RELAX,Increment    105: Step Time =    1.000,SHELL-1,1510,5.65216,7.75,17.0877,ASSEMBLY_SHELL-1_ALLEL,TI,"shell < TI > < 5 section points > : SNEG, (fraction = -1.0)",111.725
C:/Users/srbb21/AppData/Local/Temp/rx18_gr30001521653382.841.odb,RELAX,Increment    105: Step Time =    1.000,SHELL-1,1511,5.65216,8.25,17.0877,ASSEMBLY_SHELL-1_ALLEL,TI,"shell < TI > < 5 section points > : SPOS, (fraction = 1.0)",137.055
C:/Users/srbb21/AppData/Local/Temp/rx18_gr30001521653382.841.odb,RELAX,Increment    105: Step Time =    1.000,SHELL-1,1511,5.65216,8.25,17.0877,ASSEMBLY_SHELL-1_ALLEL,TI,"shell < TI > < 5 section points > : SNEG, (fraction = -1.0)",107.557
C:/Users/srbb21/AppData/Local/Temp/rx18_gr30001521653382.841.odb,RELAX,Increment    105: Step Time =    1.000,SHELL-1,1512,5.65216,8.75,17.0877,ASSEMBLY_SHELL-1_ALLEL,TI,"shell < TI > < 5 section points > : SNEG, (fraction = -1.0)",103.181
C:/Users/srbb21/AppData/Local/Temp/rx18_gr30001521653382.841.odb,RELAX,Increment    105: Step Time =    1.000,SHELL-1,1512,5.65216,8.75,17.0877,ASSEMBLY_SHELL-1_ALLEL,TI,"shell < TI > < 5 section points > : SPOS, (fraction = 1.0)",140.569
C:/Users/srbb21/AppData/Local/Temp/rx18_gr30001521653382.841.odb,RELAX,Increment    105: Step Time =    1.000,SHELL-1,1513,6.12458,-8.75,16.9242,ASSEMBLY_SHELL-1_ALLEL,TI,"shell < TI > < 5 section points > : SPOS, (fraction = 1.0)",140.907
C:/Users/srbb21/AppData/Local/Temp/rx18_gr30001521653382.841.odb,RELAX,Increment    105: Step Time =    1.000,SHELL-1,1513,6.12458,-8.75,16.9242,ASSEMBLY_SHELL-1_ALLEL,TI,"shell < TI > < 5 section points > : SNEG, (fraction = -1.0)",102.309
C:/Users/srbb21/AppData/Local/Temp/rx18_gr30001521653382.841.odb,RELAX,Increment    105: Step Time =    1.000,SHELL-1,1514,6.12458,-8.25,16.9242,ASSEMBLY_SHELL-1_ALLEL,TI,"shell < TI > < 5 section points > : SPOS, (fraction = 1.0)",137.165
C:/Users/srbb21/AppData/Local/Temp/rx18_gr30001521653382.841.odb,RELAX,Increment    105: Step Time =    1.000,SHELL-1,1514,6.12458,-8.25,16.9242,ASSEMBLY_SHELL-1_ALLEL,TI,"shell < TI > < 5 section points > : SNEG, (fraction = -1.0)",107.004
C:/Users/srbb21/AppData/Local/Temp/rx18_gr30001521653382.841.odb,RELAX,Increment    105: Step Time =    1.000,SHELL-1,1515,6.12458,-7.75,16.9242,ASSEMBLY_SHELL-1_ALLEL,TI,"shell < TI > < 5 section points > : SPOS, (fraction = 1.0)",133.665
C:/Users/srbb21/AppData/Local/Temp/rx18_gr30001521653382.841.odb,RELAX,Increment    105: Step Time =    1.000,SHELL-1,1515,6.12458,-7.75,16.9242,ASSEMBLY_SHELL-1_ALLEL,TI,"shell < TI > < 5 section points > : SNEG, (fraction = -1.0)",111.49
C:/Users/srbb21/AppData/Local/Temp/rx18_gr30001521653382.841.odb,RELAX,Increment    105: Step Time =    1.000,SHELL-1,1516,6.12458,-7.25,16.9242,ASSEMBLY_SHELL-1_ALLEL,TI,"shell < TI > < 5 section points > : SNEG, (fraction = -1.0)",115.624
C:/Users/srbb21/AppData/Local/Temp/rx18_gr30001521653382.841.odb,RELAX,Increment    105: Step Time =    1.000,SHELL-1,1516,6.12458,-7.25,16.9242,ASSEMBLY_SHELL-1_ALLEL,TI,"shell < TI > < 5 section points > : SPOS, (fraction = 1.0)",130.49
C:/Users/srbb21/AppData/Local/Temp/rx18_gr30001521653382.841.odb,RELAX,Increment    105: Step Time =    1.000,SHELL-1,1517,6.12458,-6.75,16.9242,ASSEMBLY_SHELL-1_ALLEL,TI,"shell < TI > < 5 section points > : SPOS, (fraction = 1.0)",127.708
C:/Users/srbb21/AppData/Local/Temp/rx18_gr30001521653382.841.odb,RELAX,Increment    105: Step Time =    1.000,SHELL-1,1517,6.12458,-6.75,16.9242,ASSEMBLY_SHELL-1_ALLEL,TI,"shell < TI > < 5 section points > : SNEG, (fraction = -1.0)",119.297
C:/Users/srbb21/AppData/Local/Temp/rx18_gr30001521653382.841.odb,RELAX,Increment    105: Step Time =    1.000,SHELL-1,1518,6.12458,-6.25,16.9242,ASSEMBLY_SHELL-1_ALLEL,TI,"shell < TI > < 5 section points > : SPOS, (fraction = 1.0)",125.345
C:/Users/srbb21/AppData/Local/Temp/rx18_gr30001521653382.841.odb,RELAX,Increment    105: Step Time =    1.000,SHELL-1,1518,6.12458,-6.25,16.9242,ASSEMBLY_SHELL-1_ALLEL,TI,"shell < TI > < 5 section points > : SNEG, (fraction = -1.0)",122.45
C:/Users/srbb21/AppData/Local/Temp/rx18_gr30001521653382.841.odb,RELAX,Increment    105: Step Time =    1.000,SHELL-1,1519,6.12458,-5.75,16.9242,ASSEMBLY_SHELL-1_ALLEL,TI,"shell < TI > < 5 section points > : SPOS, (fraction = 1.0)",123.406
C:/Users/srbb21/AppData/Local/Temp/rx18_gr30001521653382.841.odb,RELAX,Increment    105: Step Time =    1.000,SHELL-1,1519,6.12458,-5.75,16.9242,ASSEMBLY_SHELL-1_ALLEL,TI,"shell < TI > < 5 section points > : SNEG, (fraction = -1.0)",125.061
C:/Users/srbb21/AppData/Local/Temp/rx18_gr30001521653382.841.odb,RELAX,Increment    105: Step Time =    1.000,SHELL-1,1520,6.12458,-5.25,16.9242,ASSEMBLY_SHELL-1_ALLEL,TI,"shell < TI > < 5 section points > : SNEG, (fraction = -1.0)",127.145
C:/Users/srbb21/AppData/Local/Temp/rx18_gr30001521653382.841.odb,RELAX,Increment    105: Step Time =    1.000,SHELL-1,1520,6.12458,-5.25,16.9242,ASSEMBLY_SHELL-1_ALLEL,TI,"shell < TI > < 5 section points > : SPOS, (fraction = 1.0)",121.873
C:/Users/srbb21/AppData/Local/Temp/rx18_gr30001521653382.841.odb,RELAX,Increment    105: Step Time =    1.000,SHELL-1,1521,6.12458,-4.75,16.9242,ASSEMBLY_SHELL-1_ALLEL,TI,"shell < TI > < 5 section points > : SPOS, (fraction = 1.0)",120.712
C:/Users/srbb21/AppData/Local/Temp/rx18_gr30001521653382.841.odb,RELAX,Increment    105: Step Time =    1.000,SHELL-1,1521,6.12458,-4.75,16.9242,ASSEMBLY_SHELL-1_ALLEL,TI,"shell < TI > < 5 section points > : SNEG, (fraction = -1.0)",128.745
C:/Users/srbb21/AppData/Local/Temp/rx18_gr30001521653382.841.odb,RELAX,Increment    105: Step Time =    1.000,SHELL-1,1522,6.12458,-4.25,16.9242,ASSEMBLY_SHELL-1_ALLEL,TI,"shell < TI > < 5 section points > : SPOS, (fraction = 1.0)",119.878
C:/Users/srbb21/AppData/Local/Temp/rx18_gr30001521653382.841.odb,RELAX,Increment    105: Step Time =    1.000,SHELL-1,1522,6.12458,-4.25,16.9242,ASSEMBLY_SHELL-1_ALLEL,TI,"shell < TI > < 5 section points > : SNEG, (fraction = -1.0)",129.921
C:/Users/srbb21/AppData/Local/Temp/rx18_gr30001521653382.841.odb,RELAX,Increment    105: Step Time =    1.000,SHELL-1,1523,6.12458,-3.75,16.9242,ASSEMBLY_SHELL-1_ALLEL,TI,"shell < TI > < 5 section points > : SPOS, (fraction = 1.0)",119.321
C:/Users/srbb21/AppData/Local/Temp/rx18_gr30001521653382.841.odb,RELAX,Increment    105: Step Time =    1.000,SHELL-1,1523,6.12458,-3.75,16.9242,ASSEMBLY_SHELL-1_ALLEL,TI,"shell < TI > < 5 section points > : SNEG, (fraction = -1.0)",130.74
C:/Users/srbb21/AppData/Local/Temp/rx18_gr30001521653382.841.odb,RELAX,Increment    105: Step Time =    1.000,SHELL-1,1524,6.12458,-3.25,16.9242,ASSEMBLY_SHELL-1_ALLEL,TI,"shell < TI > < 5 section points > : SPOS, (fraction = 1.0)",118.988
C:/Users/srbb21/AppData/Local/Temp/rx18_gr30001521653382.841.odb,RELAX,Increment    105: Step Time =    1.000,SHELL-1,1524,6.12458,-3.25,16.9242,ASSEMBLY_SHELL-1_ALLEL,TI,"shell < TI > < 5 section points > : SNEG, (fraction = -1.0)",131.276
C:/Users/srbb21/AppData/Local/Temp/rx18_gr30001521653382.841.odb,RELAX,Increment    105: Step Time =    1.000,SHELL-1,1525,6.12458,-2.75,16.9242,ASSEMBLY_SHELL-1_ALLEL,TI,"shell < TI > < 5 section points > : SNEG, (fraction = -1.0)",131.599
C:/Users/srbb21/AppData/Local/Temp/rx18_gr30001521653382.841.odb,RELAX,Increment    105: Step Time =    1.000,SHELL-1,1525,6.12458,-2.75,16.9242,ASSEMBLY_SHELL-1_ALLEL,TI,"shell < TI > < 5 section points > : SPOS, (fraction = 1.0)",118.825
C:/Users/srbb21/AppData/Local/Temp/rx18_gr30001521653382.841.odb,RELAX,Increment    105: Step Time =    1.000,SHELL-1,1526,6.12458,-2.25,16.9242,ASSEMBLY_SHELL-1_ALLEL,TI,"shell < TI > < 5 section points > : SPOS, (fraction = 1.0)",118.78
C:/Users/srbb21/AppData/Local/Temp/rx18_gr30001521653382.841.odb,RELAX,Increment    105: Step Time =    1.000,SHELL-1,1526,6.12458,-2.25,16.9242,ASSEMBLY_SHELL-1_ALLEL,TI,"shell < TI > < 5 section points > : SNEG, (fraction = -1.0)",131.768
C:/Users/srbb21/AppData/Local/Temp/rx18_gr30001521653382.841.odb,RELAX,Increment    105: Step Time =    1.000,SHELL-1,1527,6.12458,-1.75,16.9242,ASSEMBLY_SHELL-1_ALLEL,TI,"shell < TI > < 5 section points > : SPOS, (fraction = 1.0)",118.807
C:/Users/srbb21/AppData/Local/Temp/rx18_gr30001521653382.841.odb,RELAX,Increment    105: Step Time =    1.000,SHELL-1,1527,6.12458,-1.75,16.9242,ASSEMBLY_SHELL-1_ALLEL,TI,"shell < TI > < 5 section points > : SNEG, (fraction = -1.0)",131.84
C:/Users/srbb21/AppData/Local/Temp/rx18_gr30001521653382.841.odb,RELAX,Increment    105: Step Time =    1.000,SHELL-1,1528,6.12458,-1.25,16.9242,ASSEMBLY_SHELL-1_ALLEL,TI,"shell < TI > < 5 section points > : SPOS, (fraction = 1.0)",118.865
C:/Users/srbb21/AppData/Local/Temp/rx18_gr30001521653382.841.odb,RELAX,Increment    105: Step Time =    1.000,SHELL-1,1528,6.12458,-1.25,16.9242,ASSEMBLY_SHELL-1_ALLEL,TI,"shell < TI > < 5 section points > : SNEG, (fraction = -1.0)",131.857
C:/Users/srbb21/AppData/Local/Temp/rx18_gr30001521653382.841.odb,RELAX,Increment    105: Step Time =    1.000,SHELL-1,1529,6.12458,-0.75,16.9242,ASSEMBLY_SHELL-1_ALLEL,TI,"shell < TI > < 5 section points > : SNEG, (fraction = -1.0)",131.85
C:/Users/srbb21/AppData/Local/Temp/rx18_gr30001521653382.841.odb,RELAX,Increment    105: Step Time =    1.000,SHELL-1,1529,6.12458,-0.75,16.9242,ASSEMBLY_SHELL-1_ALLEL,TI,"shell < TI > < 5 section points > : SPOS, (fraction = 1.0)",118.922
C:/Users/srbb21/AppData/Local/Temp/rx18_gr30001521653382.841.odb,RELAX,Increment    105: Step Time =    1.000,SHELL-1,1530,6.12458,-0.25,16.9242,ASSEMBLY_SHELL-1_ALLEL,TI,"shell < TI > < 5 section points > : SPOS, (fraction = 1.0)",118.956
C:/Users/srbb21/AppData/Local/Temp/rx18_gr30001521653382.841.odb,RELAX,Increment    105: Step Time =    1.000,SHELL-1,1530,6.12458,-0.25,16.9242,ASSEMBLY_SHELL-1_ALLEL,TI,"shell < TI > < 5 section points > : SNEG, (fraction = -1.0)",131.841
C:/Users/srbb21/AppData/Local/Temp/rx18_gr30001521653382.841.odb,RELAX,Increment    105: Step Time =    1.000,SHELL-1,1531,6.12458,0.25,16.9242,ASSEMBLY_SHELL-1_ALLEL,TI,"shell < TI > < 5 section points > : SPOS, (fraction = 1.0)",118.956
C:/Users/srbb21/AppData/Local/Temp/rx18_gr30001521653382.841.odb,RELAX,Increment    105: Step Time =    1.000,SHELL-1,1531,6.12458,0.25,16.9242,ASSEMBLY_SHELL-1_ALLEL,TI,"shell < TI > < 5 section points > : SNEG, (fraction = -1.0)",131.841
C:/Users/srbb21/AppData/Local/Temp/rx18_gr30001521653382.841.odb,RELAX,Increment    105: Step Time =    1.000,SHELL-1,1532,6.12458,0.75,16.9242,ASSEMBLY_SHELL-1_ALLEL,TI,"shell < TI > < 5 section points > : SPOS, (fraction = 1.0)",118.922
C:/Users/srbb21/AppData/Local/Temp/rx18_gr30001521653382.841.odb,RELAX,Increment    105: Step Time =    1.000,SHELL-1,1532,6.12458,0.75,16.9242,ASSEMBLY_SHELL-1_ALLEL,TI,"shell < TI > < 5 section points > : SNEG, (fraction = -1.0)",131.85
C:/Users/srbb21/AppData/Local/Temp/rx18_gr30001521653382.841.odb,RELAX,Increment    105: Step Time =    1.000,SHELL-1,1533,6.12458,1.25,16.9242,ASSEMBLY_SHELL-1_ALLEL,TI,"shell < TI > < 5 section points > : SNEG, (fraction = -1.0)",131.857
C:/Users/srbb21/AppData/Local/Temp/rx18_gr30001521653382.841.odb,RELAX,Increment    105: Step Time =    1.000,SHELL-1,1533,6.12458,1.25,16.9242,ASSEMBLY_SHELL-1_ALLEL,TI,"shell < TI > < 5 section points > : SPOS, (fraction = 1.0)",118.865
C:/Users/srbb21/AppData/Local/Temp/rx18_gr30001521653382.841.odb,RELAX,Increment    105: Step Time =    1.000,SHELL-1,1534,6.12458,1.75,16.9242,ASSEMBLY_SHELL-1_ALLEL,TI,"shell < TI > < 5 section points > : SPOS, (fraction = 1.0)",118.807
C:/Users/srbb21/AppData/Local/Temp/rx18_gr30001521653382.841.odb,RELAX,Increment    105: Step Time =    1.000,SHELL-1,1534,6.12458,1.75,16.9242,ASSEMBLY_SHELL-1_ALLEL,TI,"shell < TI > < 5 section points > : SNEG, (fraction = -1.0)",131.84
C:/Users/srbb21/AppData/Local/Temp/rx18_gr30001521653382.841.odb,RELAX,Increment    105: Step Time =    1.000,SHELL-1,1535,6.12458,2.25,16.9242,ASSEMBLY_SHELL-1_ALLEL,TI,"shell < TI > < 5 section points > : SPOS, (fraction = 1.0)",118.78
C:/Users/srbb21/AppData/Local/Temp/rx18_gr30001521653382.841.odb,RELAX,Increment    105: Step Time =    1.000,SHELL-1,1535,6.12458,2.25,16.9242,ASSEMBLY_SHELL-1_ALLEL,TI,"shell < TI > < 5 section points > : SNEG, (fraction = -1.0)",131.768
C:/Users/srbb21/AppData/Local/Temp/rx18_gr30001521653382.841.odb,RELAX,Increment    105: Step Time =    1.000,SHELL-1,1536,6.12458,2.75,16.9242,ASSEMBLY_SHELL-1_ALLEL,TI,"shell < TI > < 5 section points > : SPOS, (fraction = 1.0)",118.825
C:/Users/srbb21/AppData/Local/Temp/rx18_gr30001521653382.841.odb,RELAX,Increment    105: Step Time =    1.000,SHELL-1,1536,6.12458,2.75,16.9242,ASSEMBLY_SHELL-1_ALLEL,TI,"shell < TI > < 5 section points > : SNEG, (fraction = -1.0)",131.599
C:/Users/srbb21/AppData/Local/Temp/rx18_gr30001521653382.841.odb,RELAX,Increment    105: Step Time =    1.000,SHELL-1,1537,6.12458,3.25,16.9242,ASSEMBLY_SHELL-1_ALLEL,TI,"shell < TI > < 5 section points > : SNEG, (fraction = -1.0)",131.276
C:/Users/srbb21/AppData/Local/Temp/rx18_gr30001521653382.841.odb,RELAX,Increment    105: Step Time =    1.000,SHELL-1,1537,6.12458,3.25,16.9242,ASSEMBLY_SHELL-1_ALLEL,TI,"shell < TI > < 5 section points > : SPOS, (fraction = 1.0)",118.988
C:/Users/srbb21/AppData/Local/Temp/rx18_gr30001521653382.841.odb,RELAX,Increment    105: Step Time =    1.000,SHELL-1,1538,6.12458,3.75,16.9242,ASSEMBLY_SHELL-1_ALLEL,TI,"shell < TI > < 5 section points > : SPOS, (fraction = 1.0)",119.321
C:/Users/srbb21/AppData/Local/Temp/rx18_gr30001521653382.841.odb,RELAX,Increment    105: Step Time =    1.000,SHELL-1,1538,6.12458,3.75,16.9242,ASSEMBLY_SHELL-1_ALLEL,TI,"shell < TI > < 5 section points > : SNEG, (fraction = -1.0)",130.74
C:/Users/srbb21/AppData/Local/Temp/rx18_gr30001521653382.841.odb,RELAX,Increment    105: Step Time =    1.000,SHELL-1,1539,6.12458,4.25,16.9242,ASSEMBLY_SHELL-1_ALLEL,TI,"shell < TI > < 5 section points > : SPOS, (fraction = 1.0)",119.878
C:/Users/srbb21/AppData/Local/Temp/rx18_gr30001521653382.841.odb,RELAX,Increment    105: Step Time =    1.000,SHELL-1,1539,6.12458,4.25,16.9242,ASSEMBLY_SHELL-1_ALLEL,TI,"shell < TI > < 5 section points > : SNEG, (fraction = -1.0)",129.921
C:/Users/srbb21/AppData/Local/Temp/rx18_gr30001521653382.841.odb,RELAX,Increment    105: Step Time =    1.000,SHELL-1,1540,6.12458,4.75,16.9242,ASSEMBLY_SHELL-1_ALLEL,TI,"shell < TI > < 5 section points > : SPOS, (fraction = 1.0)",120.712
C:/Users/srbb21/AppData/Local/Temp/rx18_gr30001521653382.841.odb,RELAX,Increment    105: Step Time =    1.000,SHELL-1,1540,6.12458,4.75,16.9242,ASSEMBLY_SHELL-1_ALLEL,TI,"shell < TI > < 5 section points > : SNEG, (fraction = -1.0)",128.745
C:/Users/srbb21/AppData/Local/Temp/rx18_gr30001521653382.841.odb,RELAX,Increment    105: Step Time =    1.000,SHELL-1,1541,6.12458,5.25,16.9242,ASSEMBLY_SHELL-1_ALLEL,TI,"shell < TI > < 5 section points > : SPOS, (fraction = 1.0)",121.873
C:/Users/srbb21/AppData/Local/Temp/rx18_gr30001521653382.841.odb,RELAX,Increment    105: Step Time =    1.000,SHELL-1,1541,6.12458,5.25,16.9242,ASSEMBLY_SHELL-1_ALLEL,TI,"shell < TI > < 5 section points > : SNEG, (fraction = -1.0)",127.145
C:/Users/srbb21/AppData/Local/Temp/rx18_gr30001521653382.841.odb,RELAX,Increment    105: Step Time =    1.000,SHELL-1,1542,6.12458,5.75,16.9242,ASSEMBLY_SHELL-1_ALLEL,TI,"shell < TI > < 5 section points > : SNEG, (fraction = -1.0)",125.061
C:/Users/srbb21/AppData/Local/Temp/rx18_gr30001521653382.841.odb,RELAX,Increment    105: Step Time =    1.000,SHELL-1,1542,6.12458,5.75,16.9242,ASSEMBLY_SHELL-1_ALLEL,TI,"shell < TI > < 5 section points > : SPOS, (fraction = 1.0)",123.406
C:/Users/srbb21/AppData/Local/Temp/rx18_gr30001521653382.841.odb,RELAX,Increment    105: Step Time =    1.000,SHELL-1,1543,6.12458,6.25,16.9242,ASSEMBLY_SHELL-1_ALLEL,TI,"shell < TI > < 5 section points > : SPOS, (fraction = 1.0)",125.345
C:/Users/srbb21/AppData/Local/Temp/rx18_gr30001521653382.841.odb,RELAX,Increment    105: Step Time =    1.000,SHELL-1,1543,6.12458,6.25,16.9242,ASSEMBLY_SHELL-1_ALLEL,TI,"shell < TI > < 5 section points > : SNEG, (fraction = -1.0)",122.45
C:/Users/srbb21/AppData/Local/Temp/rx18_gr30001521653382.841.odb,RELAX,Increment    105: Step Time =    1.000,SHELL-1,1544,6.12458,6.75,16.9242,ASSEMBLY_SHELL-1_ALLEL,TI,"shell < TI > < 5 section points > : SPOS, (fraction = 1.0)",127.708
C:/Users/srbb21/AppData/Local/Temp/rx18_gr30001521653382.841.odb,RELAX,Increment    105: Step Time =    1.000,SHELL-1,1544,6.12458,6.75,16.9242,ASSEMBLY_SHELL-1_ALLEL,TI,"shell < TI > < 5 section points > : SNEG, (fraction = -1.0)",119.297
C:/Users/srbb21/AppData/Local/Temp/rx18_gr30001521653382.841.odb,RELAX,Increment    105: Step Time =    1.000,SHELL-1,1545,6.12458,7.25,16.9242,ASSEMBLY_SHELL-1_ALLEL,TI,"shell < TI > < 5 section points > : SPOS, (fraction = 1.0)",130.49
C:/Users/srbb21/AppData/Local/Temp/rx18_gr30001521653382.841.odb,RELAX,Increment    105: Step Time =    1.000,SHELL-1,1545,6.12458,7.25,16.9242,ASSEMBLY_SHELL-1_ALLEL,TI,"shell < TI > < 5 section points > : SNEG, (fraction = -1.0)",115.624
C:/Users/srbb21/AppData/Local/Temp/rx18_gr30001521653382.841.odb,RELAX,Increment    105: Step Time =    1.000,SHELL-1,1546,6.12458,7.75,16.9242,ASSEMBLY_SHELL-1_ALLEL,TI,"shell < TI > < 5 section points > : SNEG, (fraction = -1.0)",111.49
C:/Users/srbb21/AppData/Local/Temp/rx18_gr30001521653382.841.odb,RELAX,Increment    105: Step Time =    1.000,SHELL-1,1546,6.12458,7.75,16.9242,ASSEMBLY_SHELL-1_ALLEL,TI,"shell < TI > < 5 section points > : SPOS, (fraction = 1.0)",133.665
C:/Users/srbb21/AppData/Local/Temp/rx18_gr30001521653382.841.odb,RELAX,Increment    105: Step Time =    1.000,SHELL-1,1547,6.12458,8.25,16.9242,ASSEMBLY_SHELL-1_ALLEL,TI,"shell < TI > < 5 section points > : SPOS, (fraction = 1.0)",137.165
C:/Users/srbb21/AppData/Local/Temp/rx18_gr30001521653382.841.odb,RELAX,Increment    105: Step Time =    1.000,SHELL-1,1547,6.12458,8.25,16.9242,ASSEMBLY_SHELL-1_ALLEL,TI,"shell < TI > < 5 section points > : SNEG, (fraction = -1.0)",107.004
C:/Users/srbb21/AppData/Local/Temp/rx18_gr30001521653382.841.odb,RELAX,Increment    105: Step Time =    1.000,SHELL-1,1548,6.12458,8.75,16.9242,ASSEMBLY_SHELL-1_ALLEL,TI,"shell < TI > < 5 section points > : SPOS, (fraction = 1.0)",140.907
C:/Users/srbb21/AppData/Local/Temp/rx18_gr30001521653382.841.odb,RELAX,Increment    105: Step Time =    1.000,SHELL-1,1548,6.12458,8.75,16.9242,ASSEMBLY_SHELL-1_ALLEL,TI,"shell < TI > < 5 section points > : SNEG, (fraction = -1.0)",102.309
C:/Users/srbb21/AppData/Local/Temp/rx18_gr30001521653382.841.odb,RELAX,Increment    105: Step Time =    1.000,SHELL-1,1549,6.59227,-8.75,16.7475,ASSEMBLY_SHELL-1_ALLEL,TI,"shell < TI > < 5 section points > : SPOS, (fraction = 1.0)",141.361
C:/Users/srbb21/AppData/Local/Temp/rx18_gr30001521653382.841.odb,RELAX,Increment    105: Step Time =    1.000,SHELL-1,1549,6.59227,-8.75,16.7475,ASSEMBLY_SHELL-1_ALLEL,TI,"shell < TI > < 5 section points > : SNEG, (fraction = -1.0)",101.252
C:/Users/srbb21/AppData/Local/Temp/rx18_gr30001521653382.841.odb,RELAX,Increment    105: Step Time =    1.000,SHELL-1,1550,6.59227,-8.25,16.7475,ASSEMBLY_SHELL-1_ALLEL,TI,"shell < TI > < 5 section points > : SNEG, (fraction = -1.0)",106.35
C:/Users/srbb21/AppData/Local/Temp/rx18_gr30001521653382.841.odb,RELAX,Increment    105: Step Time =    1.000,SHELL-1,1550,6.59227,-8.25,16.7475,ASSEMBLY_SHELL-1_ALLEL,TI,"shell < TI > < 5 section points > : SPOS, (fraction = 1.0)",137.322
C:/Users/srbb21/AppData/Local/Temp/rx18_gr30001521653382.841.odb,RELAX,Increment    105: Step Time =    1.000,SHELL-1,1551,6.59227,-7.75,16.7475,ASSEMBLY_SHELL-1_ALLEL,TI,"shell < TI > < 5 section points > : SPOS, (fraction = 1.0)",133.551
C:/Users/srbb21/AppData/Local/Temp/rx18_gr30001521653382.841.odb,RELAX,Increment    105: Step Time =    1.000,SHELL-1,1551,6.59227,-7.75,16.7475,ASSEMBLY_SHELL-1_ALLEL,TI,"shell < TI > < 5 section points > : SNEG, (fraction = -1.0)",111.233
C:/Users/srbb21/AppData/Local/Temp/rx18_gr30001521653382.841.odb,RELAX,Increment    105: Step Time =    1.000,SHELL-1,1552,6.59227,-7.25,16.7475,ASSEMBLY_SHELL-1_ALLEL,TI,"shell < TI > < 5 section points > : SPOS, (fraction = 1.0)",130.17
C:/Users/srbb21/AppData/Local/Temp/rx18_gr30001521653382.841.odb,RELAX,Increment    105: Step Time =    1.000,SHELL-1,1552,6.59227,-7.25,16.7475,ASSEMBLY_SHELL-1_ALLEL,TI,"shell < TI > < 5 section points > : SNEG, (fraction = -1.0)",115.709
C:/Users/srbb21/AppData/Local/Temp/rx18_gr30001521653382.841.odb,RELAX,Increment    105: Step Time =    1.000,SHELL-1,1553,6.59227,-6.75,16.7475,ASSEMBLY_SHELL-1_ALLEL,TI,"shell < TI > < 5 section points > : SPOS, (fraction = 1.0)",127.262
C:/Users/srbb21/AppData/Local/Temp/rx18_gr30001521653382.841.odb,RELAX,Increment    105: Step Time =    1.000,SHELL-1,1553,6.59227,-6.75,16.7475,ASSEMBLY_SHELL-1_ALLEL,TI,"shell < TI > < 5 section points > : SNEG, (fraction = -1.0)",119.65
C:/Users/srbb21/AppData/Local/Temp/rx18_gr30001521653382.841.odb,RELAX,Increment    105: Step Time =    1.000,SHELL-1,1554,6.59227,-6.25,16.7475,ASSEMBLY_SHELL-1_ALLEL,TI,"shell < TI > < 5 section points > : SNEG, (fraction = -1.0)",122.988
C:/Users/srbb21/AppData/Local/Temp/rx18_gr30001521653382.841.odb,RELAX,Increment    105: Step Time =    1.000,SHELL-1,1554,6.59227,-6.25,16.7475,ASSEMBLY_SHELL-1_ALLEL,TI,"shell < TI > < 5 section points > : SPOS, (fraction = 1.0)",124.86
C:/Users/srbb21/AppData/Local/Temp/rx18_gr30001521653382.841.odb,RELAX,Increment    105: Step Time =    1.000,SHELL-1,1555,6.59227,-5.75,16.7475,ASSEMBLY_SHELL-1_ALLEL,TI,"shell < TI > < 5 section points > : SPOS, (fraction = 1.0)",122.96
C:/Users/srbb21/AppData/Local/Temp/rx18_gr30001521653382.841.odb,RELAX,Increment    105: Step Time =    1.000,SHELL-1,1555,6.59227,-5.75,16.7475,ASSEMBLY_SHELL-1_ALLEL,TI,"shell < TI > < 5 section points > : SNEG, (fraction = -1.0)",125.71
C:/Users/srbb21/AppData/Local/Temp/rx18_gr30001521653382.841.odb,RELAX,Increment    105: Step Time =    1.000,SHELL-1,1556,6.59227,-5.25,16.7475,ASSEMBLY_SHELL-1_ALLEL,TI,"shell < TI > < 5 section points > : SPOS, (fraction = 1.0)",121.533
C:/Users/srbb21/AppData/Local/Temp/rx18_gr30001521653382.841.odb,RELAX,Increment    105: Step Time =    1.000,SHELL-1,1556,6.59227,-5.25,16.7475,ASSEMBLY_SHELL-1_ALLEL,TI,"shell < TI > < 5 section points > : SNEG, (fraction = -1.0)",127.843
C:/Users/srbb21/AppData/Local/Temp/rx18_gr30001521653382.841.odb,RELAX,Increment    105: Step Time =    1.000,SHELL-1,1557,6.59227,-4.75,16.7475,ASSEMBLY_SHELL-1_ALLEL,TI,"shell < TI > < 5 section points > : SPOS, (fraction = 1.0)",120.526
C:/Users/srbb21/AppData/Local/Temp/rx18_gr30001521653382.841.odb,RELAX,Increment    105: Step Time =    1.000,SHELL-1,1557,6.59227,-4.75,16.7475,ASSEMBLY_SHELL-1_ALLEL,TI,"shell < TI > < 5 section points > : SNEG, (fraction = -1.0)",129.443
C:/Users/srbb21/AppData/Local/Temp/rx18_gr30001521653382.841.odb,RELAX,Increment    105: Step Time =    1.000,SHELL-1,1558,6.59227,-4.25,16.7475,ASSEMBLY_SHELL-1_ALLEL,TI,"shell < TI > < 5 section points > : SPOS, (fraction = 1.0)",119.879
C:/Users/srbb21/AppData/Local/Temp/rx18_gr30001521653382.841.odb,RELAX,Increment    105: Step Time =    1.000,SHELL-1,1558,6.59227,-4.25,16.7475,ASSEMBLY_SHELL-1_ALLEL,TI,"shell < TI > < 5 section points > : SNEG, (fraction = -1.0)",130.587
C:/Users/srbb21/AppData/Local/Temp/rx18_gr30001521653382.841.odb,RELAX,Increment    105: Step Time =    1.000,SHELL-1,1559,6.59227,-3.75,16.7475,ASSEMBLY_SHELL-1_ALLEL,TI,"shell < TI > < 5 section points > : SNEG, (fraction = -1.0)",131.356
C:/Users/srbb21/AppData/Local/Temp/rx18_gr30001521653382.841.odb,RELAX,Increment    105: Step Time =    1.000,SHELL-1,1559,6.59227,-3.75,16.7475,ASSEMBLY_SHELL-1_ALLEL,TI,"shell < TI > < 5 section points > : SPOS, (fraction = 1.0)",119.526
C:/Users/srbb21/AppData/Local/Temp/rx18_gr30001521653382.841.odb,RELAX,Increment    105: Step Time =    1.000,SHELL-1,1560,6.59227,-3.25,16.7475,ASSEMBLY_SHELL-1_ALLEL,TI,"shell < TI > < 5 section points > : SPOS, (fraction = 1.0)",119.398
C:/Users/srbb21/AppData/Local/Temp/rx18_gr30001521653382.841.odb,RELAX,Increment    105: Step Time =    1.000,SHELL-1,1560,6.59227,-3.25,16.7475,ASSEMBLY_SHELL-1_ALLEL,TI,"shell < TI > < 5 section points > : SNEG, (fraction = -1.0)",131.834
C:/Users/srbb21/AppData/Local/Temp/rx18_gr30001521653382.841.odb,RELAX,Increment    105: Step Time =    1.000,SHELL-1,1561,6.59227,-2.75,16.7475,ASSEMBLY_SHELL-1_ALLEL,TI,"shell < TI > < 5 section points > : SPOS, (fraction = 1.0)",119.43
C:/Users/srbb21/AppData/Local/Temp/rx18_gr30001521653382.841.odb,RELAX,Increment    105: Step Time =    1.000,SHELL-1,1561,6.59227,-2.75,16.7475,ASSEMBLY_SHELL-1_ALLEL,TI,"shell < TI > < 5 section points > : SNEG, (fraction = -1.0)",132.098
C:/Users/srbb21/AppData/Local/Temp/rx18_gr30001521653382.841.odb,RELAX,Increment    105: Step Time =    1.000,SHELL-1,1562,6.59227,-2.25,16.7475,ASSEMBLY_SHELL-1_ALLEL,TI,"shell < TI > < 5 section points > : SPOS, (fraction = 1.0)",119.561
C:/Users/srbb21/AppData/Local/Temp/rx18_gr30001521653382.841.odb,RELAX,Increment    105: Step Time =    1.000,SHELL-1,1562,6.59227,-2.25,16.7475,ASSEMBLY_SHELL-1_ALLEL,TI,"shell < TI > < 5 section points > : SNEG, (fraction = -1.0)",132.216
C:/Users/srbb21/AppData/Local/Temp/rx18_gr30001521653382.841.odb,RELAX,Increment    105: Step Time =    1.000,SHELL-1,1563,6.59227,-1.75,16.7475,ASSEMBLY_SHELL-1_ALLEL,TI,"shell < TI > < 5 section points > : SNEG, (fraction = -1.0)",132.244
C:/Users/srbb21/AppData/Local/Temp/rx18_gr30001521653382.841.odb,RELAX,Increment    105: Step Time =    1.000,SHELL-1,1563,6.59227,-1.75,16.7475,ASSEMBLY_SHELL-1_ALLEL,TI,"shell < TI > < 5 section points > : SPOS, (fraction = 1.0)",119.736
C:/Users/srbb21/AppData/Local/Temp/rx18_gr30001521653382.841.odb,RELAX,Increment    105: Step Time =    1.000,SHELL-1,1564,6.59227,-1.25,16.7475,ASSEMBLY_SHELL-1_ALLEL,TI,"shell < TI > < 5 section points > : SPOS, (fraction = 1.0)",119.909
C:/Users/srbb21/AppData/Local/Temp/rx18_gr30001521653382.841.odb,RELAX,Increment    105: Step Time =    1.000,SHELL-1,1564,6.59227,-1.25,16.7475,ASSEMBLY_SHELL-1_ALLEL,TI,"shell < TI > < 5 section points > : SNEG, (fraction = -1.0)",132.228
C:/Users/srbb21/AppData/Local/Temp/rx18_gr30001521653382.841.odb,RELAX,Increment    105: Step Time =    1.000,SHELL-1,1565,6.59227,-0.75,16.7475,ASSEMBLY_SHELL-1_ALLEL,TI,"shell < TI > < 5 section points > : SPOS, (fraction = 1.0)",120.044
C:/Users/srbb21/AppData/Local/Temp/rx18_gr30001521653382.841.odb,RELAX,Increment    105: Step Time =    1.000,SHELL-1,1565,6.59227,-0.75,16.7475,ASSEMBLY_SHELL-1_ALLEL,TI,"shell < TI > < 5 section points > : SNEG, (fraction = -1.0)",132.199
C:/Users/srbb21/AppData/Local/Temp/rx18_gr30001521653382.841.odb,RELAX,Increment    105: Step Time =    1.000,SHELL-1,1566,6.59227,-0.25,16.7475,ASSEMBLY_SHELL-1_ALLEL,TI,"shell < TI > < 5 section points > : SPOS, (fraction = 1.0)",120.118
C:/Users/srbb21/AppData/Local/Temp/rx18_gr30001521653382.841.odb,RELAX,Increment    105: Step Time =    1.000,SHELL-1,1566,6.59227,-0.25,16.7475,ASSEMBLY_SHELL-1_ALLEL,TI,"shell < TI > < 5 section points > : SNEG, (fraction = -1.0)",132.179
C:/Users/srbb21/AppData/Local/Temp/rx18_gr30001521653382.841.odb,RELAX,Increment    105: Step Time =    1.000,SHELL-1,1567,6.59227,0.25,16.7475,ASSEMBLY_SHELL-1_ALLEL,TI,"shell < TI > < 5 section points > : SNEG, (fraction = -1.0)",132.179
C:/Users/srbb21/AppData/Local/Temp/rx18_gr30001521653382.841.odb,RELAX,Increment    105: Step Time =    1.000,SHELL-1,1567,6.59227,0.25,16.7475,ASSEMBLY_SHELL-1_ALLEL,TI,"shell < TI > < 5 section points > : SPOS, (fraction = 1.0)",120.118
C:/Users/srbb21/AppData/Local/Temp/rx18_gr30001521653382.841.odb,RELAX,Increment    105: Step Time =    1.000,SHELL-1,1568,6.59227,0.75,16.7475,ASSEMBLY_SHELL-1_ALLEL,TI,"shell < TI > < 5 section points > : SPOS, (fraction = 1.0)",120.044
C:/Users/srbb21/AppData/Local/Temp/rx18_gr30001521653382.841.odb,RELAX,Increment    105: Step Time =    1.000,SHELL-1,1568,6.59227,0.75,16.7475,ASSEMBLY_SHELL-1_ALLEL,TI,"shell < TI > < 5 section points > : SNEG, (fraction = -1.0)",132.199
C:/Users/srbb21/AppData/Local/Temp/rx18_gr30001521653382.841.odb,RELAX,Increment    105: Step Time =    1.000,SHELL-1,1569,6.59227,1.25,16.7475,ASSEMBLY_SHELL-1_ALLEL,TI,"shell < TI > < 5 section points > : SPOS, (fraction = 1.0)",119.909
C:/Users/srbb21/AppData/Local/Temp/rx18_gr30001521653382.841.odb,RELAX,Increment    105: Step Time =    1.000,SHELL-1,1569,6.59227,1.25,16.7475,ASSEMBLY_SHELL-1_ALLEL,TI,"shell < TI > < 5 section points > : SNEG, (fraction = -1.0)",132.228
C:/Users/srbb21/AppData/Local/Temp/rx18_gr30001521653382.841.odb,RELAX,Increment    105: Step Time =    1.000,SHELL-1,1570,6.59227,1.75,16.7475,ASSEMBLY_SHELL-1_ALLEL,TI,"shell < TI > < 5 section points > : SPOS, (fraction = 1.0)",119.736
C:/Users/srbb21/AppData/Local/Temp/rx18_gr30001521653382.841.odb,RELAX,Increment    105: Step Time =    1.000,SHELL-1,1570,6.59227,1.75,16.7475,ASSEMBLY_SHELL-1_ALLEL,TI,"shell < TI > < 5 section points > : SNEG, (fraction = -1.0)",132.244
C:/Users/srbb21/AppData/Local/Temp/rx18_gr30001521653382.841.odb,RELAX,Increment    105: Step Time =    1.000,SHELL-1,1571,6.59227,2.25,16.7475,ASSEMBLY_SHELL-1_ALLEL,TI,"shell < TI > < 5 section points > : SNEG, (fraction = -1.0)",132.216
C:/Users/srbb21/AppData/Local/Temp/rx18_gr30001521653382.841.odb,RELAX,Increment    105: Step Time =    1.000,SHELL-1,1571,6.59227,2.25,16.7475,ASSEMBLY_SHELL-1_ALLEL,TI,"shell < TI > < 5 section points > : SPOS, (fraction = 1.0)",119.561
C:/Users/srbb21/AppData/Local/Temp/rx18_gr30001521653382.841.odb,RELAX,Increment    105: Step Time =    1.000,SHELL-1,1572,6.59227,2.75,16.7475,ASSEMBLY_SHELL-1_ALLEL,TI,"shell < TI > < 5 section points > : SPOS, (fraction = 1.0)",119.43
C:/Users/srbb21/AppData/Local/Temp/rx18_gr30001521653382.841.odb,RELAX,Increment    105: Step Time =    1.000,SHELL-1,1572,6.59227,2.75,16.7475,ASSEMBLY_SHELL-1_ALLEL,TI,"shell < TI > < 5 section points > : SNEG, (fraction = -1.0)",132.098
C:/Users/srbb21/AppData/Local/Temp/rx18_gr30001521653382.841.odb,RELAX,Increment    105: Step Time =    1.000,SHELL-1,1573,6.59227,3.25,16.7475,ASSEMBLY_SHELL-1_ALLEL,TI,"shell < TI > < 5 section points > : SPOS, (fraction = 1.0)",119.398
C:/Users/srbb21/AppData/Local/Temp/rx18_gr30001521653382.841.odb,RELAX,Increment    105: Step Time =    1.000,SHELL-1,1573,6.59227,3.25,16.7475,ASSEMBLY_SHELL-1_ALLEL,TI,"shell < TI > < 5 section points > : SNEG, (fraction = -1.0)",131.834
C:/Users/srbb21/AppData/Local/Temp/rx18_gr30001521653382.841.odb,RELAX,Increment    105: Step Time =    1.000,SHELL-1,1574,6.59227,3.75,16.7475,ASSEMBLY_SHELL-1_ALLEL,TI,"shell < TI > < 5 section points > : SPOS, (fraction = 1.0)",119.526
C:/Users/srbb21/AppData/Local/Temp/rx18_gr30001521653382.841.odb,RELAX,Increment    105: Step Time =    1.000,SHELL-1,1574,6.59227,3.75,16.7475,ASSEMBLY_SHELL-1_ALLEL,TI,"shell < TI > < 5 section points > : SNEG, (fraction = -1.0)",131.356
C:/Users/srbb21/AppData/Local/Temp/rx18_gr30001521653382.841.odb,RELAX,Increment    105: Step Time =    1.000,SHELL-1,1575,6.59227,4.25,16.7475,ASSEMBLY_SHELL-1_ALLEL,TI,"shell < TI > < 5 section points > : SPOS, (fraction = 1.0)",119.879
C:/Users/srbb21/AppData/Local/Temp/rx18_gr30001521653382.841.odb,RELAX,Increment    105: Step Time =    1.000,SHELL-1,1575,6.59227,4.25,16.7475,ASSEMBLY_SHELL-1_ALLEL,TI,"shell < TI > < 5 section points > : SNEG, (fraction = -1.0)",130.587
C:/Users/srbb21/AppData/Local/Temp/rx18_gr30001521653382.841.odb,RELAX,Increment    105: Step Time =    1.000,SHELL-1,1576,6.59227,4.75,16.7475,ASSEMBLY_SHELL-1_ALLEL,TI,"shell < TI > < 5 section points > : SNEG, (fraction = -1.0)",129.443
C:/Users/srbb21/AppData/Local/Temp/rx18_gr30001521653382.841.odb,RELAX,Increment    105: Step Time =    1.000,SHELL-1,1576,6.59227,4.75,16.7475,ASSEMBLY_SHELL-1_ALLEL,TI,"shell < TI > < 5 section points > : SPOS, (fraction = 1.0)",120.526
C:/Users/srbb21/AppData/Local/Temp/rx18_gr30001521653382.841.odb,RELAX,Increment    105: Step Time =    1.000,SHELL-1,1577,6.59227,5.25,16.7475,ASSEMBLY_SHELL-1_ALLEL,TI,"shell < TI > < 5 section points > : SPOS, (fraction = 1.0)",121.533
C:/Users/srbb21/AppData/Local/Temp/rx18_gr30001521653382.841.odb,RELAX,Increment    105: Step Time =    1.000,SHELL-1,1577,6.59227,5.25,16.7475,ASSEMBLY_SHELL-1_ALLEL,TI,"shell < TI > < 5 section points > : SNEG, (fraction = -1.0)",127.843
C:/Users/srbb21/AppData/Local/Temp/rx18_gr30001521653382.841.odb,RELAX,Increment    105: Step Time =    1.000,SHELL-1,1578,6.59227,5.75,16.7475,ASSEMBLY_SHELL-1_ALLEL,TI,"shell < TI > < 5 section points > : SPOS, (fraction = 1.0)",122.96
C:/Users/srbb21/AppData/Local/Temp/rx18_gr30001521653382.841.odb,RELAX,Increment    105: Step Time =    1.000,SHELL-1,1578,6.59227,5.75,16.7475,ASSEMBLY_SHELL-1_ALLEL,TI,"shell < TI > < 5 section points > : SNEG, (fraction = -1.0)",125.71
C:/Users/srbb21/AppData/Local/Temp/rx18_gr30001521653382.841.odb,RELAX,Increment    105: Step Time =    1.000,SHELL-1,1579,6.59227,6.25,16.7475,ASSEMBLY_SHELL-1_ALLEL,TI,"shell < TI > < 5 section points > : SPOS, (fraction = 1.0)",124.86
C:/Users/srbb21/AppData/Local/Temp/rx18_gr30001521653382.841.odb,RELAX,Increment    105: Step Time =    1.000,SHELL-1,1579,6.59227,6.25,16.7475,ASSEMBLY_SHELL-1_ALLEL,TI,"shell < TI > < 5 section points > : SNEG, (fraction = -1.0)",122.988
C:/Users/srbb21/AppData/Local/Temp/rx18_gr30001521653382.841.odb,RELAX,Increment    105: Step Time =    1.000,SHELL-1,1580,6.59227,6.75,16.7475,ASSEMBLY_SHELL-1_ALLEL,TI,"shell < TI > < 5 section points > : SNEG, (fraction = -1.0)",119.65
C:/Users/srbb21/AppData/Local/Temp/rx18_gr30001521653382.841.odb,RELAX,Increment    105: Step Time =    1.000,SHELL-1,1580,6.59227,6.75,16.7475,ASSEMBLY_SHELL-1_ALLEL,TI,"shell < TI > < 5 section points > : SPOS, (fraction = 1.0)",127.262
C:/Users/srbb21/AppData/Local/Temp/rx18_gr30001521653382.841.odb,RELAX,Increment    105: Step Time =    1.000,SHELL-1,1581,6.59227,7.25,16.7475,ASSEMBLY_SHELL-1_ALLEL,TI,"shell < TI > < 5 section points > : SPOS, (fraction = 1.0)",130.17
C:/Users/srbb21/AppData/Local/Temp/rx18_gr30001521653382.841.odb,RELAX,Increment    105: Step Time =    1.000,SHELL-1,1581,6.59227,7.25,16.7475,ASSEMBLY_SHELL-1_ALLEL,TI,"shell < TI > < 5 section points > : SNEG, (fraction = -1.0)",115.709
C:/Users/srbb21/AppData/Local/Temp/rx18_gr30001521653382.841.odb,RELAX,Increment    105: Step Time =    1.000,SHELL-1,1582,6.59227,7.75,16.7475,ASSEMBLY_SHELL-1_ALLEL,TI,"shell < TI > < 5 section points > : SPOS, (fraction = 1.0)",133.551
C:/Users/srbb21/AppData/Local/Temp/rx18_gr30001521653382.841.odb,RELAX,Increment    105: Step Time =    1.000,SHELL-1,1582,6.59227,7.75,16.7475,ASSEMBLY_SHELL-1_ALLEL,TI,"shell < TI > < 5 section points > : SNEG, (fraction = -1.0)",111.233
C:/Users/srbb21/AppData/Local/Temp/rx18_gr30001521653382.841.odb,RELAX,Increment    105: Step Time =    1.000,SHELL-1,1583,6.59227,8.25,16.7475,ASSEMBLY_SHELL-1_ALLEL,TI,"shell < TI > < 5 section points > : SPOS, (fraction = 1.0)",137.322
C:/Users/srbb21/AppData/Local/Temp/rx18_gr30001521653382.841.odb,RELAX,Increment    105: Step Time =    1.000,SHELL-1,1583,6.59227,8.25,16.7475,ASSEMBLY_SHELL-1_ALLEL,TI,"shell < TI > < 5 section points > : SNEG, (fraction = -1.0)",106.35
C:/Users/srbb21/AppData/Local/Temp/rx18_gr30001521653382.841.odb,RELAX,Increment    105: Step Time =    1.000,SHELL-1,1584,6.59227,8.75,16.7475,ASSEMBLY_SHELL-1_ALLEL,TI,"shell < TI > < 5 section points > : SNEG, (fraction = -1.0)",101.252
C:/Users/srbb21/AppData/Local/Temp/rx18_gr30001521653382.841.odb,RELAX,Increment    105: Step Time =    1.000,SHELL-1,1584,6.59227,8.75,16.7475,ASSEMBLY_SHELL-1_ALLEL,TI,"shell < TI > < 5 section points > : SPOS, (fraction = 1.0)",141.361
C:/Users/srbb21/AppData/Local/Temp/rx18_gr30001521653382.841.odb,RELAX,Increment    105: Step Time =    1.000,SHELL-1,1585,7.05488,-8.75,16.558,ASSEMBLY_SHELL-1_ALLEL,TI,"shell < TI > < 5 section points > : SPOS, (fraction = 1.0)",141.94
C:/Users/srbb21/AppData/Local/Temp/rx18_gr30001521653382.841.odb,RELAX,Increment    105: Step Time =    1.000,SHELL-1,1585,7.05488,-8.75,16.558,ASSEMBLY_SHELL-1_ALLEL,TI,"shell < TI > < 5 section points > : SNEG, (fraction = -1.0)",99.9496
C:/Users/srbb21/AppData/Local/Temp/rx18_gr30001521653382.841.odb,RELAX,Increment    105: Step Time =    1.000,SHELL-1,1586,7.05488,-8.25,16.558,ASSEMBLY_SHELL-1_ALLEL,TI,"shell < TI > < 5 section points > : SPOS, (fraction = 1.0)",137.508
C:/Users/srbb21/AppData/Local/Temp/rx18_gr30001521653382.841.odb,RELAX,Increment    105: Step Time =    1.000,SHELL-1,1586,7.05488,-8.25,16.558,ASSEMBLY_SHELL-1_ALLEL,TI,"shell < TI > < 5 section points > : SNEG, (fraction = -1.0)",105.566
C:/Users/srbb21/AppData/Local/Temp/rx18_gr30001521653382.841.odb,RELAX,Increment    105: Step Time =    1.000,SHELL-1,1587,7.05488,-7.75,16.558,ASSEMBLY_SHELL-1_ALLEL,TI,"shell < TI > < 5 section points > : SPOS, (fraction = 1.0)",133.402
C:/Users/srbb21/AppData/Local/Temp/rx18_gr30001521653382.841.odb,RELAX,Increment    105: Step Time =    1.000,SHELL-1,1587,7.05488,-7.75,16.558,ASSEMBLY_SHELL-1_ALLEL,TI,"shell < TI > < 5 section points > : SNEG, (fraction = -1.0)",110.935
C:/Users/srbb21/AppData/Local/Temp/rx18_gr30001521653382.841.odb,RELAX,Increment    105: Step Time =    1.000,SHELL-1,1588,7.05488,-7.25,16.558,ASSEMBLY_SHELL-1_ALLEL,TI,"shell < TI > < 5 section points > : SNEG, (fraction = -1.0)",115.822
C:/Users/srbb21/AppData/Local/Temp/rx18_gr30001521653382.841.odb,RELAX,Increment    105: Step Time =    1.000,SHELL-1,1588,7.05488,-7.25,16.558,ASSEMBLY_SHELL-1_ALLEL,TI,"shell < TI > < 5 section points > : SPOS, (fraction = 1.0)",129.782
C:/Users/srbb21/AppData/Local/Temp/rx18_gr30001521653382.841.odb,RELAX,Increment    105: Step Time =    1.000,SHELL-1,1589,7.05488,-6.75,16.558,ASSEMBLY_SHELL-1_ALLEL,TI,"shell < TI > < 5 section points > : SPOS, (fraction = 1.0)",126.751
C:/Users/srbb21/AppData/Local/Temp/rx18_gr30001521653382.841.odb,RELAX,Increment    105: Step Time =    1.000,SHELL-1,1589,7.05488,-6.75,16.558,ASSEMBLY_SHELL-1_ALLEL,TI,"shell < TI > < 5 section points > : SNEG, (fraction = -1.0)",120.069
C:/Users/srbb21/AppData/Local/Temp/rx18_gr30001521653382.841.odb,RELAX,Increment    105: Step Time =    1.000,SHELL-1,1590,7.05488,-6.25,16.558,ASSEMBLY_SHELL-1_ALLEL,TI,"shell < TI > < 5 section points > : SPOS, (fraction = 1.0)",124.335
C:/Users/srbb21/AppData/Local/Temp/rx18_gr30001521653382.841.odb,RELAX,Increment    105: Step Time =    1.000,SHELL-1,1590,7.05488,-6.25,16.558,ASSEMBLY_SHELL-1_ALLEL,TI,"shell < TI > < 5 section points > : SNEG, (fraction = -1.0)",123.613
C:/Users/srbb21/AppData/Local/Temp/rx18_gr30001521653382.841.odb,RELAX,Increment    105: Step Time =    1.000,SHELL-1,1591,7.05488,-5.75,16.558,ASSEMBLY_SHELL-1_ALLEL,TI,"shell < TI > < 5 section points > : SPOS, (fraction = 1.0)",122.52
C:/Users/srbb21/AppData/Local/Temp/rx18_gr30001521653382.841.odb,RELAX,Increment    105: Step Time =    1.000,SHELL-1,1591,7.05488,-5.75,16.558,ASSEMBLY_SHELL-1_ALLEL,TI,"shell < TI > < 5 section points > : SNEG, (fraction = -1.0)",126.45
C:/Users/srbb21/AppData/Local/Temp/rx18_gr30001521653382.841.odb,RELAX,Increment    105: Step Time =    1.000,SHELL-1,1592,7.05488,-5.25,16.558,ASSEMBLY_SHELL-1_ALLEL,TI,"shell < TI > < 5 section points > : SPOS, (fraction = 1.0)",121.25
C:/Users/srbb21/AppData/Local/Temp/rx18_gr30001521653382.841.odb,RELAX,Increment    105: Step Time =    1.000,SHELL-1,1592,7.05488,-5.25,16.558,ASSEMBLY_SHELL-1_ALLEL,TI,"shell < TI > < 5 section points > : SNEG, (fraction = -1.0)",128.629
C:/Users/srbb21/AppData/Local/Temp/rx18_gr30001521653382.841.odb,RELAX,Increment    105: Step Time =    1.000,SHELL-1,1593,7.05488,-4.75,16.558,ASSEMBLY_SHELL-1_ALLEL,TI,"shell < TI > < 5 section points > : SNEG, (fraction = -1.0)",130.226
C:/Users/srbb21/AppData/Local/Temp/rx18_gr30001521653382.841.odb,RELAX,Increment    105: Step Time =    1.000,SHELL-1,1593,7.05488,-4.75,16.558,ASSEMBLY_SHELL-1_ALLEL,TI,"shell < TI > < 5 section points > : SPOS, (fraction = 1.0)",120.452
C:/Users/srbb21/AppData/Local/Temp/rx18_gr30001521653382.841.odb,RELAX,Increment    105: Step Time =    1.000,SHELL-1,1594,7.05488,-4.25,16.558,ASSEMBLY_SHELL-1_ALLEL,TI,"shell < TI > < 5 section points > : SPOS, (fraction = 1.0)",120.043
C:/Users/srbb21/AppData/Local/Temp/rx18_gr30001521653382.841.odb,RELAX,Increment    105: Step Time =    1.000,SHELL-1,1594,7.05488,-4.25,16.558,ASSEMBLY_SHELL-1_ALLEL,TI,"shell < TI > < 5 section points > : SNEG, (fraction = -1.0)",131.334
C:/Users/srbb21/AppData/Local/Temp/rx18_gr30001521653382.841.odb,RELAX,Increment    105: Step Time =    1.000,SHELL-1,1595,7.05488,-3.75,16.558,ASSEMBLY_SHELL-1_ALLEL,TI,"shell < TI > < 5 section points > : SPOS, (fraction = 1.0)",119.937
C:/Users/srbb21/AppData/Local/Temp/rx18_gr30001521653382.841.odb,RELAX,Increment    105: Step Time =    1.000,SHELL-1,1595,7.05488,-3.75,16.558,ASSEMBLY_SHELL-1_ALLEL,TI,"shell < TI > < 5 section points > : SNEG, (fraction = -1.0)",132.052
C:/Users/srbb21/AppData/Local/Temp/rx18_gr30001521653382.841.odb,RELAX,Increment    105: Step Time =    1.000,SHELL-1,1596,7.05488,-3.25,16.558,ASSEMBLY_SHELL-1_ALLEL,TI,"shell < TI > < 5 section points > : SPOS, (fraction = 1.0)",120.049
C:/Users/srbb21/AppData/Local/Temp/rx18_gr30001521653382.841.odb,RELAX,Increment    105: Step Time =    1.000,SHELL-1,1596,7.05488,-3.25,16.558,ASSEMBLY_SHELL-1_ALLEL,TI,"shell < TI > < 5 section points > : SNEG, (fraction = -1.0)",132.473
C:/Users/srbb21/AppData/Local/Temp/rx18_gr30001521653382.841.odb,RELAX,Increment    105: Step Time =    1.000,SHELL-1,1597,7.05488,-2.75,16.558,ASSEMBLY_SHELL-1_ALLEL,TI,"shell < TI > < 5 section points > : SNEG, (fraction = -1.0)",132.684
C:/Users/srbb21/AppData/Local/Temp/rx18_gr30001521653382.841.odb,RELAX,Increment    105: Step Time =    1.000,SHELL-1,1597,7.05488,-2.75,16.558,ASSEMBLY_SHELL-1_ALLEL,TI,"shell < TI > < 5 section points > : SPOS, (fraction = 1.0)",120.303
C:/Users/srbb21/AppData/Local/Temp/rx18_gr30001521653382.841.odb,RELAX,Increment    105: Step Time =    1.000,SHELL-1,1598,7.05488,-2.25,16.558,ASSEMBLY_SHELL-1_ALLEL,TI,"shell < TI > < 5 section points > : SPOS, (fraction = 1.0)",120.628
C:/Users/srbb21/AppData/Local/Temp/rx18_gr30001521653382.841.odb,RELAX,Increment    105: Step Time =    1.000,SHELL-1,1598,7.05488,-2.25,16.558,ASSEMBLY_SHELL-1_ALLEL,TI,"shell < TI > < 5 section points > : SNEG, (fraction = -1.0)",132.754
C:/Users/srbb21/AppData/Local/Temp/rx18_gr30001521653382.841.odb,RELAX,Increment    105: Step Time =    1.000,SHELL-1,1599,7.05488,-1.75,16.558,ASSEMBLY_SHELL-1_ALLEL,TI,"shell < TI > < 5 section points > : SPOS, (fraction = 1.0)",120.963
C:/Users/srbb21/AppData/Local/Temp/rx18_gr30001521653382.841.odb,RELAX,Increment    105: Step Time =    1.000,SHELL-1,1599,7.05488,-1.75,16.558,ASSEMBLY_SHELL-1_ALLEL,TI,"shell < TI > < 5 section points > : SNEG, (fraction = -1.0)",132.745
C:/Users/srbb21/AppData/Local/Temp/rx18_gr30001521653382.841.odb,RELAX,Increment    105: Step Time =    1.000,SHELL-1,1600,7.05488,-1.25,16.558,ASSEMBLY_SHELL-1_ALLEL,TI,"shell < TI > < 5 section points > : SPOS, (fraction = 1.0)",121.259
C:/Users/srbb21/AppData/Local/Temp/rx18_gr30001521653382.841.odb,RELAX,Increment    105: Step Time =    1.000,SHELL-1,1600,7.05488,-1.25,16.558,ASSEMBLY_SHELL-1_ALLEL,TI,"shell < TI > < 5 section points > : SNEG, (fraction = -1.0)",132.701
C:/Users/srbb21/AppData/Local/Temp/rx18_gr30001521653382.841.odb,RELAX,Increment    105: Step Time =    1.000,SHELL-1,1601,7.05488,-0.75,16.558,ASSEMBLY_SHELL-1_ALLEL,TI,"shell < TI > < 5 section points > : SNEG, (fraction = -1.0)",132.654
C:/Users/srbb21/AppData/Local/Temp/rx18_gr30001521653382.841.odb,RELAX,Increment    105: Step Time =    1.000,SHELL-1,1601,7.05488,-0.75,16.558,ASSEMBLY_SHELL-1_ALLEL,TI,"shell < TI > < 5 section points > : SPOS, (fraction = 1.0)",121.478
C:/Users/srbb21/AppData/Local/Temp/rx18_gr30001521653382.841.odb,RELAX,Increment    105: Step Time =    1.000,SHELL-1,1602,7.05488,-0.25,16.558,ASSEMBLY_SHELL-1_ALLEL,TI,"shell < TI > < 5 section points > : SPOS, (fraction = 1.0)",121.593
C:/Users/srbb21/AppData/Local/Temp/rx18_gr30001521653382.841.odb,RELAX,Increment    105: Step Time =    1.000,SHELL-1,1602,7.05488,-0.25,16.558,ASSEMBLY_SHELL-1_ALLEL,TI,"shell < TI > < 5 section points > : SNEG, (fraction = -1.0)",132.625
C:/Users/srbb21/AppData/Local/Temp/rx18_gr30001521653382.841.odb,RELAX,Increment    105: Step Time =    1.000,SHELL-1,1603,7.05488,0.25,16.558,ASSEMBLY_SHELL-1_ALLEL,TI,"shell < TI > < 5 section points > : SPOS, (fraction = 1.0)",121.593
C:/Users/srbb21/AppData/Local/Temp/rx18_gr30001521653382.841.odb,RELAX,Increment    105: Step Time =    1.000,SHELL-1,1603,7.05488,0.25,16.558,ASSEMBLY_SHELL-1_ALLEL,TI,"shell < TI > < 5 section points > : SNEG, (fraction = -1.0)",132.625
C:/Users/srbb21/AppData/Local/Temp/rx18_gr30001521653382.841.odb,RELAX,Increment    105: Step Time =    1.000,SHELL-1,1604,7.05488,0.75,16.558,ASSEMBLY_SHELL-1_ALLEL,TI,"shell < TI > < 5 section points > : SPOS, (fraction = 1.0)",121.478
C:/Users/srbb21/AppData/Local/Temp/rx18_gr30001521653382.841.odb,RELAX,Increment    105: Step Time =    1.000,SHELL-1,1604,7.05488,0.75,16.558,ASSEMBLY_SHELL-1_ALLEL,TI,"shell < TI > < 5 section points > : SNEG, (fraction = -1.0)",132.654
C:/Users/srbb21/AppData/Local/Temp/rx18_gr30001521653382.841.odb,RELAX,Increment    105: Step Time =    1.000,SHELL-1,1605,7.05488,1.25,16.558,ASSEMBLY_SHELL-1_ALLEL,TI,"shell < TI > < 5 section points > : SNEG, (fraction = -1.0)",132.701
C:/Users/srbb21/AppData/Local/Temp/rx18_gr30001521653382.841.odb,RELAX,Increment    105: Step Time =    1.000,SHELL-1,1605,7.05488,1.25,16.558,ASSEMBLY_SHELL-1_ALLEL,TI,"shell < TI > < 5 section points > : SPOS, (fraction = 1.0)",121.259
C:/Users/srbb21/AppData/Local/Temp/rx18_gr30001521653382.841.odb,RELAX,Increment    105: Step Time =    1.000,SHELL-1,1606,7.05488,1.75,16.558,ASSEMBLY_SHELL-1_ALLEL,TI,"shell < TI > < 5 section points > : SPOS, (fraction = 1.0)",120.963
C:/Users/srbb21/AppData/Local/Temp/rx18_gr30001521653382.841.odb,RELAX,Increment    105: Step Time =    1.000,SHELL-1,1606,7.05488,1.75,16.558,ASSEMBLY_SHELL-1_ALLEL,TI,"shell < TI > < 5 section points > : SNEG, (fraction = -1.0)",132.745
C:/Users/srbb21/AppData/Local/Temp/rx18_gr30001521653382.841.odb,RELAX,Increment    105: Step Time =    1.000,SHELL-1,1607,7.05488,2.25,16.558,ASSEMBLY_SHELL-1_ALLEL,TI,"shell < TI > < 5 section points > : SPOS, (fraction = 1.0)",120.628
C:/Users/srbb21/AppData/Local/Temp/rx18_gr30001521653382.841.odb,RELAX,Increment    105: Step Time =    1.000,SHELL-1,1607,7.05488,2.25,16.558,ASSEMBLY_SHELL-1_ALLEL,TI,"shell < TI > < 5 section points > : SNEG, (fraction = -1.0)",132.754
C:/Users/srbb21/AppData/Local/Temp/rx18_gr30001521653382.841.odb,RELAX,Increment    105: Step Time =    1.000,SHELL-1,1608,7.05488,2.75,16.558,ASSEMBLY_SHELL-1_ALLEL,TI,"shell < TI > < 5 section points > : SPOS, (fraction = 1.0)",120.303
C:/Users/srbb21/AppData/Local/Temp/rx18_gr30001521653382.841.odb,RELAX,Increment    105: Step Time =    1.000,SHELL-1,1608,7.05488,2.75,16.558,ASSEMBLY_SHELL-1_ALLEL,TI,"shell < TI > < 5 section points > : SNEG, (fraction = -1.0)",132.684
C:/Users/srbb21/AppData/Local/Temp/rx18_gr30001521653382.841.odb,RELAX,Increment    105: Step Time =    1.000,SHELL-1,1609,7.05488,3.25,16.558,ASSEMBLY_SHELL-1_ALLEL,TI,"shell < TI > < 5 section points > : SNEG, (fraction = -1.0)",132.473
C:/Users/srbb21/AppData/Local/Temp/rx18_gr30001521653382.841.odb,RELAX,Increment    105: Step Time =    1.000,SHELL-1,1609,7.05488,3.25,16.558,ASSEMBLY_SHELL-1_ALLEL,TI,"shell < TI > < 5 section points > : SPOS, (fraction = 1.0)",120.049
C:/Users/srbb21/AppData/Local/Temp/rx18_gr30001521653382.841.odb,RELAX,Increment    105: Step Time =    1.000,SHELL-1,1610,7.05488,3.75,16.558,ASSEMBLY_SHELL-1_ALLEL,TI,"shell < TI > < 5 section points > : SPOS, (fraction = 1.0)",119.937
C:/Users/srbb21/AppData/Local/Temp/rx18_gr30001521653382.841.odb,RELAX,Increment    105: Step Time =    1.000,SHELL-1,1610,7.05488,3.75,16.558,ASSEMBLY_SHELL-1_ALLEL,TI,"shell < TI > < 5 section points > : SNEG, (fraction = -1.0)",132.052
C:/Users/srbb21/AppData/Local/Temp/rx18_gr30001521653382.841.odb,RELAX,Increment    105: Step Time =    1.000,SHELL-1,1611,7.05488,4.25,16.558,ASSEMBLY_SHELL-1_ALLEL,TI,"shell < TI > < 5 section points > : SPOS, (fraction = 1.0)",120.043
C:/Users/srbb21/AppData/Local/Temp/rx18_gr30001521653382.841.odb,RELAX,Increment    105: Step Time =    1.000,SHELL-1,1611,7.05488,4.25,16.558,ASSEMBLY_SHELL-1_ALLEL,TI,"shell < TI > < 5 section points > : SNEG, (fraction = -1.0)",131.334
C:/Users/srbb21/AppData/Local/Temp/rx18_gr30001521653382.841.odb,RELAX,Increment    105: Step Time =    1.000,SHELL-1,1612,7.05488,4.75,16.558,ASSEMBLY_SHELL-1_ALLEL,TI,"shell < TI > < 5 section points > : SPOS, (fraction = 1.0)",120.452
C:/Users/srbb21/AppData/Local/Temp/rx18_gr30001521653382.841.odb,RELAX,Increment    105: Step Time =    1.000,SHELL-1,1612,7.05488,4.75,16.558,ASSEMBLY_SHELL-1_ALLEL,TI,"shell < TI > < 5 section points > : SNEG, (fraction = -1.0)",130.226
C:/Users/srbb21/AppData/Local/Temp/rx18_gr30001521653382.841.odb,RELAX,Increment    105: Step Time =    1.000,SHELL-1,1613,7.05488,5.25,16.558,ASSEMBLY_SHELL-1_ALLEL,TI,"shell < TI > < 5 section points > : SNEG, (fraction = -1.0)",128.629
C:/Users/srbb21/AppData/Local/Temp/rx18_gr30001521653382.841.odb,RELAX,Increment    105: Step Time =    1.000,SHELL-1,1613,7.05488,5.25,16.558,ASSEMBLY_SHELL-1_ALLEL,TI,"shell < TI > < 5 section points > : SPOS, (fraction = 1.0)",121.25
C:/Users/srbb21/AppData/Local/Temp/rx18_gr30001521653382.841.odb,RELAX,Increment    105: Step Time =    1.000,SHELL-1,1614,7.05488,5.75,16.558,ASSEMBLY_SHELL-1_ALLEL,TI,"shell < TI > < 5 section points > : SPOS, (fraction = 1.0)",122.52
C:/Users/srbb21/AppData/Local/Temp/rx18_gr30001521653382.841.odb,RELAX,Increment    105: Step Time =    1.000,SHELL-1,1614,7.05488,5.75,16.558,ASSEMBLY_SHELL-1_ALLEL,TI,"shell < TI > < 5 section points > : SNEG, (fraction = -1.0)",126.45
C:/Users/srbb21/AppData/Local/Temp/rx18_gr30001521653382.841.odb,RELAX,Increment    105: Step Time =    1.000,SHELL-1,1615,7.05488,6.25,16.558,ASSEMBLY_SHELL-1_ALLEL,TI,"shell < TI > < 5 section points > : SPOS, (fraction = 1.0)",124.335
C:/Users/srbb21/AppData/Local/Temp/rx18_gr30001521653382.841.odb,RELAX,Increment    105: Step Time =    1.000,SHELL-1,1615,7.05488,6.25,16.558,ASSEMBLY_SHELL-1_ALLEL,TI,"shell < TI > < 5 section points > : SNEG, (fraction = -1.0)",123.613
C:/Users/srbb21/AppData/Local/Temp/rx18_gr30001521653382.841.odb,RELAX,Increment    105: Step Time =    1.000,SHELL-1,1616,7.05488,6.75,16.558,ASSEMBLY_SHELL-1_ALLEL,TI,"shell < TI > < 5 section points > : SPOS, (fraction = 1.0)",126.751
C:/Users/srbb21/AppData/Local/Temp/rx18_gr30001521653382.841.odb,RELAX,Increment    105: Step Time =    1.000,SHELL-1,1616,7.05488,6.75,16.558,ASSEMBLY_SHELL-1_ALLEL,TI,"shell < TI > < 5 section points > : SNEG, (fraction = -1.0)",120.069
C:/Users/srbb21/AppData/Local/Temp/rx18_gr30001521653382.841.odb,RELAX,Increment    105: Step Time =    1.000,SHELL-1,1617,7.05488,7.25,16.558,ASSEMBLY_SHELL-1_ALLEL,TI,"shell < TI > < 5 section points > : SNEG, (fraction = -1.0)",115.822
C:/Users/srbb21/AppData/Local/Temp/rx18_gr30001521653382.841.odb,RELAX,Increment    105: Step Time =    1.000,SHELL-1,1617,7.05488,7.25,16.558,ASSEMBLY_SHELL-1_ALLEL,TI,"shell < TI > < 5 section points > : SPOS, (fraction = 1.0)",129.782
C:/Users/srbb21/AppData/Local/Temp/rx18_gr30001521653382.841.odb,RELAX,Increment    105: Step Time =    1.000,SHELL-1,1618,7.05488,7.75,16.558,ASSEMBLY_SHELL-1_ALLEL,TI,"shell < TI > < 5 section points > : SPOS, (fraction = 1.0)",133.402
C:/Users/srbb21/AppData/Local/Temp/rx18_gr30001521653382.841.odb,RELAX,Increment    105: Step Time =    1.000,SHELL-1,1618,7.05488,7.75,16.558,ASSEMBLY_SHELL-1_ALLEL,TI,"shell < TI > < 5 section points > : SNEG, (fraction = -1.0)",110.935
C:/Users/srbb21/AppData/Local/Temp/rx18_gr30001521653382.841.odb,RELAX,Increment    105: Step Time =    1.000,SHELL-1,1619,7.05488,8.25,16.558,ASSEMBLY_SHELL-1_ALLEL,TI,"shell < TI > < 5 section points > : SPOS, (fraction = 1.0)",137.508
C:/Users/srbb21/AppData/Local/Temp/rx18_gr30001521653382.841.odb,RELAX,Increment    105: Step Time =    1.000,SHELL-1,1619,7.05488,8.25,16.558,ASSEMBLY_SHELL-1_ALLEL,TI,"shell < TI > < 5 section points > : SNEG, (fraction = -1.0)",105.566
C:/Users/srbb21/AppData/Local/Temp/rx18_gr30001521653382.841.odb,RELAX,Increment    105: Step Time =    1.000,SHELL-1,1620,7.05488,8.75,16.558,ASSEMBLY_SHELL-1_ALLEL,TI,"shell < TI > < 5 section points > : SPOS, (fraction = 1.0)",141.94
C:/Users/srbb21/AppData/Local/Temp/rx18_gr30001521653382.841.odb,RELAX,Increment    105: Step Time =    1.000,SHELL-1,1620,7.05488,8.75,16.558,ASSEMBLY_SHELL-1_ALLEL,TI,"shell < TI > < 5 section points > : SNEG, (fraction = -1.0)",99.9496
C:/Users/srbb21/AppData/Local/Temp/rx18_gr30001521653382.841.odb,RELAX,Increment    105: Step Time =    1.000,SHELL-1,1621,7.51204,-8.75,16.3556,ASSEMBLY_SHELL-1_ALLEL,TI,"shell < TI > < 5 section points > : SNEG, (fraction = -1.0)",98.3277
C:/Users/srbb21/AppData/Local/Temp/rx18_gr30001521653382.841.odb,RELAX,Increment    105: Step Time =    1.000,SHELL-1,1621,7.51204,-8.75,16.3556,ASSEMBLY_SHELL-1_ALLEL,TI,"shell < TI > < 5 section points > : SPOS, (fraction = 1.0)",142.632
C:/Users/srbb21/AppData/Local/Temp/rx18_gr30001521653382.841.odb,RELAX,Increment    105: Step Time =    1.000,SHELL-1,1622,7.51204,-8.25,16.3556,ASSEMBLY_SHELL-1_ALLEL,TI,"shell < TI > < 5 section points > : SPOS, (fraction = 1.0)",137.684
C:/Users/srbb21/AppData/Local/Temp/rx18_gr30001521653382.841.odb,RELAX,Increment    105: Step Time =    1.000,SHELL-1,1622,7.51204,-8.25,16.3556,ASSEMBLY_SHELL-1_ALLEL,TI,"shell < TI > < 5 section points > : SNEG, (fraction = -1.0)",104.604
C:/Users/srbb21/AppData/Local/Temp/rx18_gr30001521653382.841.odb,RELAX,Increment    105: Step Time =    1.000,SHELL-1,1623,7.51204,-7.75,16.3556,ASSEMBLY_SHELL-1_ALLEL,TI,"shell < TI > < 5 section points > : SPOS, (fraction = 1.0)",133.164
C:/Users/srbb21/AppData/Local/Temp/rx18_gr30001521653382.841.odb,RELAX,Increment    105: Step Time =    1.000,SHELL-1,1623,7.51204,-7.75,16.3556,ASSEMBLY_SHELL-1_ALLEL,TI,"shell < TI > < 5 section points > : SNEG, (fraction = -1.0)",110.568
C:/Users/srbb21/AppData/Local/Temp/rx18_gr30001521653382.841.odb,RELAX,Increment    105: Step Time =    1.000,SHELL-1,1624,7.51204,-7.25,16.3556,ASSEMBLY_SHELL-1_ALLEL,TI,"shell < TI > < 5 section points > : SPOS, (fraction = 1.0)",129.281
C:/Users/srbb21/AppData/Local/Temp/rx18_gr30001521653382.841.odb,RELAX,Increment    105: Step Time =    1.000,SHELL-1,1624,7.51204,-7.25,16.3556,ASSEMBLY_SHELL-1_ALLEL,TI,"shell < TI > < 5 section points > : SNEG, (fraction = -1.0)",115.928
C:/Users/srbb21/AppData/Local/Temp/rx18_gr30001521653382.841.odb,RELAX,Increment    105: Step Time =    1.000,SHELL-1,1625,7.51204,-6.75,16.3556,ASSEMBLY_SHELL-1_ALLEL,TI,"shell < TI > < 5 section points > : SPOS, (fraction = 1.0)",126.14
C:/Users/srbb21/AppData/Local/Temp/rx18_gr30001521653382.841.odb,RELAX,Increment    105: Step Time =    1.000,SHELL-1,1625,7.51204,-6.75,16.3556,ASSEMBLY_SHELL-1_ALLEL,TI,"shell < TI > < 5 section points > : SNEG, (fraction = -1.0)",120.516
C:/Users/srbb21/AppData/Local/Temp/rx18_gr30001521653382.841.odb,RELAX,Increment    105: Step Time =    1.000,SHELL-1,1626,7.51204,-6.25,16.3556,ASSEMBLY_SHELL-1_ALLEL,TI,"shell < TI > < 5 section points > : SNEG, (fraction = -1.0)",124.275
C:/Users/srbb21/AppData/Local/Temp/rx18_gr30001521653382.841.odb,RELAX,Increment    105: Step Time =    1.000,SHELL-1,1626,7.51204,-6.25,16.3556,ASSEMBLY_SHELL-1_ALLEL,TI,"shell < TI > < 5 section points > : SPOS, (fraction = 1.0)",123.758
C:/Users/srbb21/AppData/Local/Temp/rx18_gr30001521653382.841.odb,RELAX,Increment    105: Step Time =    1.000,SHELL-1,1627,7.51204,-5.75,16.3556,ASSEMBLY_SHELL-1_ALLEL,TI,"shell < TI > < 5 section points > : SPOS, (fraction = 1.0)",122.089
C:/Users/srbb21/AppData/Local/Temp/rx18_gr30001521653382.841.odb,RELAX,Increment    105: Step Time =    1.000,SHELL-1,1627,7.51204,-5.75,16.3556,ASSEMBLY_SHELL-1_ALLEL,TI,"shell < TI > < 5 section points > : SNEG, (fraction = -1.0)",127.225
C:/Users/srbb21/AppData/Local/Temp/rx18_gr30001521653382.841.odb,RELAX,Increment    105: Step Time =    1.000,SHELL-1,1628,7.51204,-5.25,16.3556,ASSEMBLY_SHELL-1_ALLEL,TI,"shell < TI > < 5 section points > : SPOS, (fraction = 1.0)",121.045
C:/Users/srbb21/AppData/Local/Temp/rx18_gr30001521653382.841.odb,RELAX,Increment    105: Step Time =    1.000,SHELL-1,1628,7.51204,-5.25,16.3556,ASSEMBLY_SHELL-1_ALLEL,TI,"shell < TI > < 5 section points > : SNEG, (fraction = -1.0)",129.441
C:/Users/srbb21/AppData/Local/Temp/rx18_gr30001521653382.841.odb,RELAX,Increment    105: Step Time =    1.000,SHELL-1,1629,7.51204,-4.75,16.3556,ASSEMBLY_SHELL-1_ALLEL,TI,"shell < TI > < 5 section points > : SPOS, (fraction = 1.0)",120.52
C:/Users/srbb21/AppData/Local/Temp/rx18_gr30001521653382.841.odb,RELAX,Increment    105: Step Time =    1.000,SHELL-1,1629,7.51204,-4.75,16.3556,ASSEMBLY_SHELL-1_ALLEL,TI,"shell < TI > < 5 section points > : SNEG, (fraction = -1.0)",131.024
C:/Users/srbb21/AppData/Local/Temp/rx18_gr30001521653382.841.odb,RELAX,Increment    105: Step Time =    1.000,SHELL-1,1630,7.51204,-4.25,16.3556,ASSEMBLY_SHELL-1_ALLEL,TI,"shell < TI > < 5 section points > : SNEG, (fraction = -1.0)",132.091
C:/Users/srbb21/AppData/Local/Temp/rx18_gr30001521653382.841.odb,RELAX,Increment    105: Step Time =    1.000,SHELL-1,1630,7.51204,-4.25,16.3556,ASSEMBLY_SHELL-1_ALLEL,TI,"shell < TI > < 5 section points > : SPOS, (fraction = 1.0)",120.404
C:/Users/srbb21/AppData/Local/Temp/rx18_gr30001521653382.841.odb,RELAX,Increment    105: Step Time =    1.000,SHELL-1,1631,7.51204,-3.75,16.3556,ASSEMBLY_SHELL-1_ALLEL,TI,"shell < TI > < 5 section points > : SPOS, (fraction = 1.0)",120.589
C:/Users/srbb21/AppData/Local/Temp/rx18_gr30001521653382.841.odb,RELAX,Increment    105: Step Time =    1.000,SHELL-1,1631,7.51204,-3.75,16.3556,ASSEMBLY_SHELL-1_ALLEL,TI,"shell < TI > < 5 section points > : SNEG, (fraction = -1.0)",132.755
C:/Users/srbb21/AppData/Local/Temp/rx18_gr30001521653382.841.odb,RELAX,Increment    105: Step Time =    1.000,SHELL-1,1632,7.51204,-3.25,16.3556,ASSEMBLY_SHELL-1_ALLEL,TI,"shell < TI > < 5 section points > : SPOS, (fraction = 1.0)",120.974
C:/Users/srbb21/AppData/Local/Temp/rx18_gr30001521653382.841.odb,RELAX,Increment    105: Step Time =    1.000,SHELL-1,1632,7.51204,-3.25,16.3556,ASSEMBLY_SHELL-1_ALLEL,TI,"shell < TI > < 5 section points > : SNEG, (fraction = -1.0)",133.122
C:/Users/srbb21/AppData/Local/Temp/rx18_gr30001521653382.841.odb,RELAX,Increment    105: Step Time =    1.000,SHELL-1,1633,7.51204,-2.75,16.3556,ASSEMBLY_SHELL-1_ALLEL,TI,"shell < TI > < 5 section points > : SPOS, (fraction = 1.0)",121.471
C:/Users/srbb21/AppData/Local/Temp/rx18_gr30001521653382.841.odb,RELAX,Increment    105: Step Time =    1.000,SHELL-1,1633,7.51204,-2.75,16.3556,ASSEMBLY_SHELL-1_ALLEL,TI,"shell < TI > < 5 section points > : SNEG, (fraction = -1.0)",133.283
C:/Users/srbb21/AppData/Local/Temp/rx18_gr30001521653382.841.odb,RELAX,Increment    105: Step Time =    1.000,SHELL-1,1634,7.51204,-2.25,16.3556,ASSEMBLY_SHELL-1_ALLEL,TI,"shell < TI > < 5 section points > : SNEG, (fraction = -1.0)",133.315
C:/Users/srbb21/AppData/Local/Temp/rx18_gr30001521653382.841.odb,RELAX,Increment    105: Step Time =    1.000,SHELL-1,1634,7.51204,-2.25,16.3556,ASSEMBLY_SHELL-1_ALLEL,TI,"shell < TI > < 5 section points > : SPOS, (fraction = 1.0)",122.003
C:/Users/srbb21/AppData/Local/Temp/rx18_gr30001521653382.841.odb,RELAX,Increment    105: Step Time =    1.000,SHELL-1,1635,7.51204,-1.75,16.3556,ASSEMBLY_SHELL-1_ALLEL,TI,"shell < TI > < 5 section points > : SPOS, (fraction = 1.0)",122.505
C:/Users/srbb21/AppData/Local/Temp/rx18_gr30001521653382.841.odb,RELAX,Increment    105: Step Time =    1.000,SHELL-1,1635,7.51204,-1.75,16.3556,ASSEMBLY_SHELL-1_ALLEL,TI,"shell < TI > < 5 section points > : SNEG, (fraction = -1.0)",133.276
C:/Users/srbb21/AppData/Local/Temp/rx18_gr30001521653382.841.odb,RELAX,Increment    105: Step Time =    1.000,SHELL-1,1636,7.51204,-1.25,16.3556,ASSEMBLY_SHELL-1_ALLEL,TI,"shell < TI > < 5 section points > : SPOS, (fraction = 1.0)",122.927
C:/Users/srbb21/AppData/Local/Temp/rx18_gr30001521653382.841.odb,RELAX,Increment    105: Step Time =    1.000,SHELL-1,1636,7.51204,-1.25,16.3556,ASSEMBLY_SHELL-1_ALLEL,TI,"shell < TI > < 5 section points > : SNEG, (fraction = -1.0)",133.211
C:/Users/srbb21/AppData/Local/Temp/rx18_gr30001521653382.841.odb,RELAX,Increment    105: Step Time =    1.000,SHELL-1,1637,7.51204,-0.75,16.3556,ASSEMBLY_SHELL-1_ALLEL,TI,"shell < TI > < 5 section points > : SPOS, (fraction = 1.0)",123.229
C:/Users/srbb21/AppData/Local/Temp/rx18_gr30001521653382.841.odb,RELAX,Increment    105: Step Time =    1.000,SHELL-1,1637,7.51204,-0.75,16.3556,ASSEMBLY_SHELL-1_ALLEL,TI,"shell < TI > < 5 section points > : SNEG, (fraction = -1.0)",133.15
C:/Users/srbb21/AppData/Local/Temp/rx18_gr30001521653382.841.odb,RELAX,Increment    105: Step Time =    1.000,SHELL-1,1638,7.51204,-0.25,16.3556,ASSEMBLY_SHELL-1_ALLEL,TI,"shell < TI > < 5 section points > : SNEG, (fraction = -1.0)",133.115
C:/Users/srbb21/AppData/Local/Temp/rx18_gr30001521653382.841.odb,RELAX,Increment    105: Step Time =    1.000,SHELL-1,1638,7.51204,-0.25,16.3556,ASSEMBLY_SHELL-1_ALLEL,TI,"shell < TI > < 5 section points > : SPOS, (fraction = 1.0)",123.387
C:/Users/srbb21/AppData/Local/Temp/rx18_gr30001521653382.841.odb,RELAX,Increment    105: Step Time =    1.000,SHELL-1,1639,7.51204,0.25,16.3556,ASSEMBLY_SHELL-1_ALLEL,TI,"shell < TI > < 5 section points > : SPOS, (fraction = 1.0)",123.387
C:/Users/srbb21/AppData/Local/Temp/rx18_gr30001521653382.841.odb,RELAX,Increment    105: Step Time =    1.000,SHELL-1,1639,7.51204,0.25,16.3556,ASSEMBLY_SHELL-1_ALLEL,TI,"shell < TI > < 5 section points > : SNEG, (fraction = -1.0)",133.115
C:/Users/srbb21/AppData/Local/Temp/rx18_gr30001521653382.841.odb,RELAX,Increment    105: Step Time =    1.000,SHELL-1,1640,7.51204,0.75,16.3556,ASSEMBLY_SHELL-1_ALLEL,TI,"shell < TI > < 5 section points > : SPOS, (fraction = 1.0)",123.229
C:/Users/srbb21/AppData/Local/Temp/rx18_gr30001521653382.841.odb,RELAX,Increment    105: Step Time =    1.000,SHELL-1,1640,7.51204,0.75,16.3556,ASSEMBLY_SHELL-1_ALLEL,TI,"shell < TI > < 5 section points > : SNEG, (fraction = -1.0)",133.15
C:/Users/srbb21/AppData/Local/Temp/rx18_gr30001521653382.841.odb,RELAX,Increment    105: Step Time =    1.000,SHELL-1,1641,7.51204,1.25,16.3556,ASSEMBLY_SHELL-1_ALLEL,TI,"shell < TI > < 5 section points > : SPOS, (fraction = 1.0)",122.927
C:/Users/srbb21/AppData/Local/Temp/rx18_gr30001521653382.841.odb,RELAX,Increment    105: Step Time =    1.000,SHELL-1,1641,7.51204,1.25,16.3556,ASSEMBLY_SHELL-1_ALLEL,TI,"shell < TI > < 5 section points > : SNEG, (fraction = -1.0)",133.211
C:/Users/srbb21/AppData/Local/Temp/rx18_gr30001521653382.841.odb,RELAX,Increment    105: Step Time =    1.000,SHELL-1,1642,7.51204,1.75,16.3556,ASSEMBLY_SHELL-1_ALLEL,TI,"shell < TI > < 5 section points > : SPOS, (fraction = 1.0)",122.505
C:/Users/srbb21/AppData/Local/Temp/rx18_gr30001521653382.841.odb,RELAX,Increment    105: Step Time =    1.000,SHELL-1,1642,7.51204,1.75,16.3556,ASSEMBLY_SHELL-1_ALLEL,TI,"shell < TI > < 5 section points > : SNEG, (fraction = -1.0)",133.276
C:/Users/srbb21/AppData/Local/Temp/rx18_gr30001521653382.841.odb,RELAX,Increment    105: Step Time =    1.000,SHELL-1,1643,7.51204,2.25,16.3556,ASSEMBLY_SHELL-1_ALLEL,TI,"shell < TI > < 5 section points > : SNEG, (fraction = -1.0)",133.315
C:/Users/srbb21/AppData/Local/Temp/rx18_gr30001521653382.841.odb,RELAX,Increment    105: Step Time =    1.000,SHELL-1,1643,7.51204,2.25,16.3556,ASSEMBLY_SHELL-1_ALLEL,TI,"shell < TI > < 5 section points > : SPOS, (fraction = 1.0)",122.003
C:/Users/srbb21/AppData/Local/Temp/rx18_gr30001521653382.841.odb,RELAX,Increment    105: Step Time =    1.000,SHELL-1,1644,7.51204,2.75,16.3556,ASSEMBLY_SHELL-1_ALLEL,TI,"shell < TI > < 5 section points > : SPOS, (fraction = 1.0)",121.471
C:/Users/srbb21/AppData/Local/Temp/rx18_gr30001521653382.841.odb,RELAX,Increment    105: Step Time =    1.000,SHELL-1,1644,7.51204,2.75,16.3556,ASSEMBLY_SHELL-1_ALLEL,TI,"shell < TI > < 5 section points > : SNEG, (fraction = -1.0)",133.283
C:/Users/srbb21/AppData/Local/Temp/rx18_gr30001521653382.841.odb,RELAX,Increment    105: Step Time =    1.000,SHELL-1,1645,7.51204,3.25,16.3556,ASSEMBLY_SHELL-1_ALLEL,TI,"shell < TI > < 5 section points > : SPOS, (fraction = 1.0)",120.974
C:/Users/srbb21/AppData/Local/Temp/rx18_gr30001521653382.841.odb,RELAX,Increment    105: Step Time =    1.000,SHELL-1,1645,7.51204,3.25,16.3556,ASSEMBLY_SHELL-1_ALLEL,TI,"shell < TI > < 5 section points > : SNEG, (fraction = -1.0)",133.122
C:/Users/srbb21/AppData/Local/Temp/rx18_gr30001521653382.841.odb,RELAX,Increment    105: Step Time =    1.000,SHELL-1,1646,7.51204,3.75,16.3556,ASSEMBLY_SHELL-1_ALLEL,TI,"shell < TI > < 5 section points > : SPOS, (fraction = 1.0)",120.589
C:/Users/srbb21/AppData/Local/Temp/rx18_gr30001521653382.841.odb,RELAX,Increment    105: Step Time =    1.000,SHELL-1,1646,7.51204,3.75,16.3556,ASSEMBLY_SHELL-1_ALLEL,TI,"shell < TI > < 5 section points > : SNEG, (fraction = -1.0)",132.755
C:/Users/srbb21/AppData/Local/Temp/rx18_gr30001521653382.841.odb,RELAX,Increment    105: Step Time =    1.000,SHELL-1,1647,7.51204,4.25,16.3556,ASSEMBLY_SHELL-1_ALLEL,TI,"shell < TI > < 5 section points > : SNEG, (fraction = -1.0)",132.091
C:/Users/srbb21/AppData/Local/Temp/rx18_gr30001521653382.841.odb,RELAX,Increment    105: Step Time =    1.000,SHELL-1,1647,7.51204,4.25,16.3556,ASSEMBLY_SHELL-1_ALLEL,TI,"shell < TI > < 5 section points > : SPOS, (fraction = 1.0)",120.404
C:/Users/srbb21/AppData/Local/Temp/rx18_gr30001521653382.841.odb,RELAX,Increment    105: Step Time =    1.000,SHELL-1,1648,7.51204,4.75,16.3556,ASSEMBLY_SHELL-1_ALLEL,TI,"shell < TI > < 5 section points > : SPOS, (fraction = 1.0)",120.52
C:/Users/srbb21/AppData/Local/Temp/rx18_gr30001521653382.841.odb,RELAX,Increment    105: Step Time =    1.000,SHELL-1,1648,7.51204,4.75,16.3556,ASSEMBLY_SHELL-1_ALLEL,TI,"shell < TI > < 5 section points > : SNEG, (fraction = -1.0)",131.024
C:/Users/srbb21/AppData/Local/Temp/rx18_gr30001521653382.841.odb,RELAX,Increment    105: Step Time =    1.000,SHELL-1,1649,7.51204,5.25,16.3556,ASSEMBLY_SHELL-1_ALLEL,TI,"shell < TI > < 5 section points > : SPOS, (fraction = 1.0)",121.045
C:/Users/srbb21/AppData/Local/Temp/rx18_gr30001521653382.841.odb,RELAX,Increment    105: Step Time =    1.000,SHELL-1,1649,7.51204,5.25,16.3556,ASSEMBLY_SHELL-1_ALLEL,TI,"shell < TI > < 5 section points > : SNEG, (fraction = -1.0)",129.441
C:/Users/srbb21/AppData/Local/Temp/rx18_gr30001521653382.841.odb,RELAX,Increment    105: Step Time =    1.000,SHELL-1,1650,7.51204,5.75,16.3556,ASSEMBLY_SHELL-1_ALLEL,TI,"shell < TI > < 5 section points > : SPOS, (fraction = 1.0)",122.089
C:/Users/srbb21/AppData/Local/Temp/rx18_gr30001521653382.841.odb,RELAX,Increment    105: Step Time =    1.000,SHELL-1,1650,7.51204,5.75,16.3556,ASSEMBLY_SHELL-1_ALLEL,TI,"shell < TI > < 5 section points > : SNEG, (fraction = -1.0)",127.225
C:/Users/srbb21/AppData/Local/Temp/rx18_gr30001521653382.841.odb,RELAX,Increment    105: Step Time =    1.000,SHELL-1,1651,7.51204,6.25,16.3556,ASSEMBLY_SHELL-1_ALLEL,TI,"shell < TI > < 5 section points > : SNEG, (fraction = -1.0)",124.275
C:/Users/srbb21/AppData/Local/Temp/rx18_gr30001521653382.841.odb,RELAX,Increment    105: Step Time =    1.000,SHELL-1,1651,7.51204,6.25,16.3556,ASSEMBLY_SHELL-1_ALLEL,TI,"shell < TI > < 5 section points > : SPOS, (fraction = 1.0)",123.758
C:/Users/srbb21/AppData/Local/Temp/rx18_gr30001521653382.841.odb,RELAX,Increment    105: Step Time =    1.000,SHELL-1,1652,7.51204,6.75,16.3556,ASSEMBLY_SHELL-1_ALLEL,TI,"shell < TI > < 5 section points > : SPOS, (fraction = 1.0)",126.14
C:/Users/srbb21/AppData/Local/Temp/rx18_gr30001521653382.841.odb,RELAX,Increment    105: Step Time =    1.000,SHELL-1,1652,7.51204,6.75,16.3556,ASSEMBLY_SHELL-1_ALLEL,TI,"shell < TI > < 5 section points > : SNEG, (fraction = -1.0)",120.516
C:/Users/srbb21/AppData/Local/Temp/rx18_gr30001521653382.841.odb,RELAX,Increment    105: Step Time =    1.000,SHELL-1,1653,7.51204,7.25,16.3556,ASSEMBLY_SHELL-1_ALLEL,TI,"shell < TI > < 5 section points > : SPOS, (fraction = 1.0)",129.281
C:/Users/srbb21/AppData/Local/Temp/rx18_gr30001521653382.841.odb,RELAX,Increment    105: Step Time =    1.000,SHELL-1,1653,7.51204,7.25,16.3556,ASSEMBLY_SHELL-1_ALLEL,TI,"shell < TI > < 5 section points > : SNEG, (fraction = -1.0)",115.928
C:/Users/srbb21/AppData/Local/Temp/rx18_gr30001521653382.841.odb,RELAX,Increment    105: Step Time =    1.000,SHELL-1,1654,7.51204,7.75,16.3556,ASSEMBLY_SHELL-1_ALLEL,TI,"shell < TI > < 5 section points > : SPOS, (fraction = 1.0)",133.164
C:/Users/srbb21/AppData/Local/Temp/rx18_gr30001521653382.841.odb,RELAX,Increment    105: Step Time =    1.000,SHELL-1,1654,7.51204,7.75,16.3556,ASSEMBLY_SHELL-1_ALLEL,TI,"shell < TI > < 5 section points > : SNEG, (fraction = -1.0)",110.568
C:/Users/srbb21/AppData/Local/Temp/rx18_gr30001521653382.841.odb,RELAX,Increment    105: Step Time =    1.000,SHELL-1,1655,7.51204,8.25,16.3556,ASSEMBLY_SHELL-1_ALLEL,TI,"shell < TI > < 5 section points > : SNEG, (fraction = -1.0)",104.604
C:/Users/srbb21/AppData/Local/Temp/rx18_gr30001521653382.841.odb,RELAX,Increment    105: Step Time =    1.000,SHELL-1,1655,7.51204,8.25,16.3556,ASSEMBLY_SHELL-1_ALLEL,TI,"shell < TI > < 5 section points > : SPOS, (fraction = 1.0)",137.684
C:/Users/srbb21/AppData/Local/Temp/rx18_gr30001521653382.841.odb,RELAX,Increment    105: Step Time =    1.000,SHELL-1,1656,7.51204,8.75,16.3556,ASSEMBLY_SHELL-1_ALLEL,TI,"shell < TI > < 5 section points > : SPOS, (fraction = 1.0)",142.632
C:/Users/srbb21/AppData/Local/Temp/rx18_gr30001521653382.841.odb,RELAX,Increment    105: Step Time =    1.000,SHELL-1,1656,7.51204,8.75,16.3556,ASSEMBLY_SHELL-1_ALLEL,TI,"shell < TI > < 5 section points > : SNEG, (fraction = -1.0)",98.3277
C:/Users/srbb21/AppData/Local/Temp/rx18_gr30001521653382.841.odb,RELAX,Increment    105: Step Time =    1.000,SHELL-1,1657,7.9634,-8.75,16.1407,ASSEMBLY_SHELL-1_ALLEL,TI,"shell < TI > < 5 section points > : SPOS, (fraction = 1.0)",143.4
C:/Users/srbb21/AppData/Local/Temp/rx18_gr30001521653382.841.odb,RELAX,Increment    105: Step Time =    1.000,SHELL-1,1657,7.9634,-8.75,16.1407,ASSEMBLY_SHELL-1_ALLEL,TI,"shell < TI > < 5 section points > : SNEG, (fraction = -1.0)",96.288
C:/Users/srbb21/AppData/Local/Temp/rx18_gr30001521653382.841.odb,RELAX,Increment    105: Step Time =    1.000,SHELL-1,1658,7.9634,-8.25,16.1407,ASSEMBLY_SHELL-1_ALLEL,TI,"shell < TI > < 5 section points > : SPOS, (fraction = 1.0)",137.772
C:/Users/srbb21/AppData/Local/Temp/rx18_gr30001521653382.841.odb,RELAX,Increment    105: Step Time =    1.000,SHELL-1,1658,7.9634,-8.25,16.1407,ASSEMBLY_SHELL-1_ALLEL,TI,"shell < TI > < 5 section points > : SNEG, (fraction = -1.0)",103.402
C:/Users/srbb21/AppData/Local/Temp/rx18_gr30001521653382.841.odb,RELAX,Increment    105: Step Time =    1.000,SHELL-1,1659,7.9634,-7.75,16.1407,ASSEMBLY_SHELL-1_ALLEL,TI,"shell < TI > < 5 section points > : SPOS, (fraction = 1.0)",132.755
C:/Users/srbb21/AppData/Local/Temp/rx18_gr30001521653382.841.odb,RELAX,Increment    105: Step Time =    1.000,SHELL-1,1659,7.9634,-7.75,16.1407,ASSEMBLY_SHELL-1_ALLEL,TI,"shell < TI > < 5 section points > : SNEG, (fraction = -1.0)",110.073
C:/Users/srbb21/AppData/Local/Temp/rx18_gr30001521653382.841.odb,RELAX,Increment    105: Step Time =    1.000,SHELL-1,1660,7.9634,-7.25,16.1407,ASSEMBLY_SHELL-1_ALLEL,TI,"shell < TI > < 5 section points > : SNEG, (fraction = -1.0)",115.97
C:/Users/srbb21/AppData/Local/Temp/rx18_gr30001521653382.841.odb,RELAX,Increment    105: Step Time =    1.000,SHELL-1,1660,7.9634,-7.25,16.1407,ASSEMBLY_SHELL-1_ALLEL,TI,"shell < TI > < 5 section points > : SPOS, (fraction = 1.0)",128.588
C:/Users/srbb21/AppData/Local/Temp/rx18_gr30001521653382.841.odb,RELAX,Increment    105: Step Time =    1.000,SHELL-1,1661,7.9634,-6.75,16.1407,ASSEMBLY_SHELL-1_ALLEL,TI,"shell < TI > < 5 section points > : SPOS, (fraction = 1.0)",125.375
C:/Users/srbb21/AppData/Local/Temp/rx18_gr30001521653382.841.odb,RELAX,Increment    105: Step Time =    1.000,SHELL-1,1661,7.9634,-6.75,16.1407,ASSEMBLY_SHELL-1_ALLEL,TI,"shell < TI > < 5 section points > : SNEG, (fraction = -1.0)",120.915
C:/Users/srbb21/AppData/Local/Temp/rx18_gr30001521653382.841.odb,RELAX,Increment    105: Step Time =    1.000,SHELL-1,1662,7.9634,-6.25,16.1407,ASSEMBLY_SHELL-1_ALLEL,TI,"shell < TI > < 5 section points > : SPOS, (fraction = 1.0)",123.094
C:/Users/srbb21/AppData/Local/Temp/rx18_gr30001521653382.841.odb,RELAX,Increment    105: Step Time =    1.000,SHELL-1,1662,7.9634,-6.25,16.1407,ASSEMBLY_SHELL-1_ALLEL,TI,"shell < TI > < 5 section points > : SNEG, (fraction = -1.0)",124.884
C:/Users/srbb21/AppData/Local/Temp/rx18_gr30001521653382.841.odb,RELAX,Increment    105: Step Time =    1.000,SHELL-1,1663,7.9634,-5.75,16.1407,ASSEMBLY_SHELL-1_ALLEL,TI,"shell < TI > < 5 section points > : SPOS, (fraction = 1.0)",121.654
C:/Users/srbb21/AppData/Local/Temp/rx18_gr30001521653382.841.odb,RELAX,Increment    105: Step Time =    1.000,SHELL-1,1663,7.9634,-5.75,16.1407,ASSEMBLY_SHELL-1_ALLEL,TI,"shell < TI > < 5 section points > : SNEG, (fraction = -1.0)",127.928
C:/Users/srbb21/AppData/Local/Temp/rx18_gr30001521653382.841.odb,RELAX,Increment    105: Step Time =    1.000,SHELL-1,1664,7.9634,-5.25,16.1407,ASSEMBLY_SHELL-1_ALLEL,TI,"shell < TI > < 5 section points > : SNEG, (fraction = -1.0)",130.16
C:/Users/srbb21/AppData/Local/Temp/rx18_gr30001521653382.841.odb,RELAX,Increment    105: Step Time =    1.000,SHELL-1,1664,7.9634,-5.25,16.1407,ASSEMBLY_SHELL-1_ALLEL,TI,"shell < TI > < 5 section points > : SPOS, (fraction = 1.0)",120.918
C:/Users/srbb21/AppData/Local/Temp/rx18_gr30001521653382.841.odb,RELAX,Increment    105: Step Time =    1.000,SHELL-1,1665,7.9634,-4.75,16.1407,ASSEMBLY_SHELL-1_ALLEL,TI,"shell < TI > < 5 section points > : SPOS, (fraction = 1.0)",120.738
C:/Users/srbb21/AppData/Local/Temp/rx18_gr30001521653382.841.odb,RELAX,Increment    105: Step Time =    1.000,SHELL-1,1665,7.9634,-4.75,16.1407,ASSEMBLY_SHELL-1_ALLEL,TI,"shell < TI > < 5 section points > : SNEG, (fraction = -1.0)",131.713
C:/Users/srbb21/AppData/Local/Temp/rx18_gr30001521653382.841.odb,RELAX,Increment    105: Step Time =    1.000,SHELL-1,1666,7.9634,-4.25,16.1407,ASSEMBLY_SHELL-1_ALLEL,TI,"shell < TI > < 5 section points > : SPOS, (fraction = 1.0)",120.971
C:/Users/srbb21/AppData/Local/Temp/rx18_gr30001521653382.841.odb,RELAX,Increment    105: Step Time =    1.000,SHELL-1,1666,7.9634,-4.25,16.1407,ASSEMBLY_SHELL-1_ALLEL,TI,"shell < TI > < 5 section points > : SNEG, (fraction = -1.0)",132.727
C:/Users/srbb21/AppData/Local/Temp/rx18_gr30001521653382.841.odb,RELAX,Increment    105: Step Time =    1.000,SHELL-1,1667,7.9634,-3.75,16.1407,ASSEMBLY_SHELL-1_ALLEL,TI,"shell < TI > < 5 section points > : SPOS, (fraction = 1.0)",121.486
C:/Users/srbb21/AppData/Local/Temp/rx18_gr30001521653382.841.odb,RELAX,Increment    105: Step Time =    1.000,SHELL-1,1667,7.9634,-3.75,16.1407,ASSEMBLY_SHELL-1_ALLEL,TI,"shell < TI > < 5 section points > : SNEG, (fraction = -1.0)",133.334
C:/Users/srbb21/AppData/Local/Temp/rx18_gr30001521653382.841.odb,RELAX,Increment    105: Step Time =    1.000,SHELL-1,1668,7.9634,-3.25,16.1407,ASSEMBLY_SHELL-1_ALLEL,TI,"shell < TI > < 5 section points > : SNEG, (fraction = -1.0)",133.649
C:/Users/srbb21/AppData/Local/Temp/rx18_gr30001521653382.841.odb,RELAX,Increment    105: Step Time =    1.000,SHELL-1,1668,7.9634,-3.25,16.1407,ASSEMBLY_SHELL-1_ALLEL,TI,"shell < TI > < 5 section points > : SPOS, (fraction = 1.0)",122.168
C:/Users/srbb21/AppData/Local/Temp/rx18_gr30001521653382.841.odb,RELAX,Increment    105: Step Time =    1.000,SHELL-1,1669,7.9634,-2.75,16.1407,ASSEMBLY_SHELL-1_ALLEL,TI,"shell < TI > < 5 section points > : SPOS, (fraction = 1.0)",122.92
C:/Users/srbb21/AppData/Local/Temp/rx18_gr30001521653382.841.odb,RELAX,Increment    105: Step Time =    1.000,SHELL-1,1669,7.9634,-2.75,16.1407,ASSEMBLY_SHELL-1_ALLEL,TI,"shell < TI > < 5 section points > : SNEG, (fraction = -1.0)",133.769
C:/Users/srbb21/AppData/Local/Temp/rx18_gr30001521653382.841.odb,RELAX,Increment    105: Step Time =    1.000,SHELL-1,1670,7.9634,-2.25,16.1407,ASSEMBLY_SHELL-1_ALLEL,TI,"shell < TI > < 5 section points > : SPOS, (fraction = 1.0)",123.664
C:/Users/srbb21/AppData/Local/Temp/rx18_gr30001521653382.841.odb,RELAX,Increment    105: Step Time =    1.000,SHELL-1,1670,7.9634,-2.25,16.1407,ASSEMBLY_SHELL-1_ALLEL,TI,"shell < TI > < 5 section points > : SNEG, (fraction = -1.0)",133.769
C:/Users/srbb21/AppData/Local/Temp/rx18_gr30001521653382.841.odb,RELAX,Increment    105: Step Time =    1.000,SHELL-1,1671,7.9634,-1.75,16.1407,ASSEMBLY_SHELL-1_ALLEL,TI,"shell < TI > < 5 section points > : SPOS, (fraction = 1.0)",124.332
C:/Users/srbb21/AppData/Local/Temp/rx18_gr30001521653382.841.odb,RELAX,Increment    105: Step Time =    1.000,SHELL-1,1671,7.9634,-1.75,16.1407,ASSEMBLY_SHELL-1_ALLEL,TI,"shell < TI > < 5 section points > : SNEG, (fraction = -1.0)",133.709
C:/Users/srbb21/AppData/Local/Temp/rx18_gr30001521653382.841.odb,RELAX,Increment    105: Step Time =    1.000,SHELL-1,1672,7.9634,-1.25,16.1407,ASSEMBLY_SHELL-1_ALLEL,TI,"shell < TI > < 5 section points > : SNEG, (fraction = -1.0)",133.631
C:/Users/srbb21/AppData/Local/Temp/rx18_gr30001521653382.841.odb,RELAX,Increment    105: Step Time =    1.000,SHELL-1,1672,7.9634,-1.25,16.1407,ASSEMBLY_SHELL-1_ALLEL,TI,"shell < TI > < 5 section points > : SPOS, (fraction = 1.0)",124.876
C:/Users/srbb21/AppData/Local/Temp/rx18_gr30001521653382.841.odb,RELAX,Increment    105: Step Time =    1.000,SHELL-1,1673,7.9634,-0.75,16.1407,ASSEMBLY_SHELL-1_ALLEL,TI,"shell < TI > < 5 section points > : SPOS, (fraction = 1.0)",125.258
C:/Users/srbb21/AppData/Local/Temp/rx18_gr30001521653382.841.odb,RELAX,Increment    105: Step Time =    1.000,SHELL-1,1673,7.9634,-0.75,16.1407,ASSEMBLY_SHELL-1_ALLEL,TI,"shell < TI > < 5 section points > : SNEG, (fraction = -1.0)",133.563
C:/Users/srbb21/AppData/Local/Temp/rx18_gr30001521653382.841.odb,RELAX,Increment    105: Step Time =    1.000,SHELL-1,1674,7.9634,-0.25,16.1407,ASSEMBLY_SHELL-1_ALLEL,TI,"shell < TI > < 5 section points > : SPOS, (fraction = 1.0)",125.456
C:/Users/srbb21/AppData/Local/Temp/rx18_gr30001521653382.841.odb,RELAX,Increment    105: Step Time =    1.000,SHELL-1,1674,7.9634,-0.25,16.1407,ASSEMBLY_SHELL-1_ALLEL,TI,"shell < TI > < 5 section points > : SNEG, (fraction = -1.0)",133.525
C:/Users/srbb21/AppData/Local/Temp/rx18_gr30001521653382.841.odb,RELAX,Increment    105: Step Time =    1.000,SHELL-1,1675,7.9634,0.25,16.1407,ASSEMBLY_SHELL-1_ALLEL,TI,"shell < TI > < 5 section points > : SPOS, (fraction = 1.0)",125.456
C:/Users/srbb21/AppData/Local/Temp/rx18_gr30001521653382.841.odb,RELAX,Increment    105: Step Time =    1.000,SHELL-1,1675,7.9634,0.25,16.1407,ASSEMBLY_SHELL-1_ALLEL,TI,"shell < TI > < 5 section points > : SNEG, (fraction = -1.0)",133.525
C:/Users/srbb21/AppData/Local/Temp/rx18_gr30001521653382.841.odb,RELAX,Increment    105: Step Time =    1.000,SHELL-1,1676,7.9634,0.75,16.1407,ASSEMBLY_SHELL-1_ALLEL,TI,"shell < TI > < 5 section points > : SPOS, (fraction = 1.0)",125.258
C:/Users/srbb21/AppData/Local/Temp/rx18_gr30001521653382.841.odb,RELAX,Increment    105: Step Time =    1.000,SHELL-1,1676,7.9634,0.75,16.1407,ASSEMBLY_SHELL-1_ALLEL,TI,"shell < TI > < 5 section points > : SNEG, (fraction = -1.0)",133.563
C:/Users/srbb21/AppData/Local/Temp/rx18_gr30001521653382.841.odb,RELAX,Increment    105: Step Time =    1.000,SHELL-1,1677,7.9634,1.25,16.1407,ASSEMBLY_SHELL-1_ALLEL,TI,"shell < TI > < 5 section points > : SNEG, (fraction = -1.0)",133.631
C:/Users/srbb21/AppData/Local/Temp/rx18_gr30001521653382.841.odb,RELAX,Increment    105: Step Time =    1.000,SHELL-1,1677,7.9634,1.25,16.1407,ASSEMBLY_SHELL-1_ALLEL,TI,"shell < TI > < 5 section points > : SPOS, (fraction = 1.0)",124.876
C:/Users/srbb21/AppData/Local/Temp/rx18_gr30001521653382.841.odb,RELAX,Increment    105: Step Time =    1.000,SHELL-1,1678,7.9634,1.75,16.1407,ASSEMBLY_SHELL-1_ALLEL,TI,"shell < TI > < 5 section points > : SPOS, (fraction = 1.0)",124.332
C:/Users/srbb21/AppData/Local/Temp/rx18_gr30001521653382.841.odb,RELAX,Increment    105: Step Time =    1.000,SHELL-1,1678,7.9634,1.75,16.1407,ASSEMBLY_SHELL-1_ALLEL,TI,"shell < TI > < 5 section points > : SNEG, (fraction = -1.0)",133.709
C:/Users/srbb21/AppData/Local/Temp/rx18_gr30001521653382.841.odb,RELAX,Increment    105: Step Time =    1.000,SHELL-1,1679,7.9634,2.25,16.1407,ASSEMBLY_SHELL-1_ALLEL,TI,"shell < TI > < 5 section points > : SPOS, (fraction = 1.0)",123.664
C:/Users/srbb21/AppData/Local/Temp/rx18_gr30001521653382.841.odb,RELAX,Increment    105: Step Time =    1.000,SHELL-1,1679,7.9634,2.25,16.1407,ASSEMBLY_SHELL-1_ALLEL,TI,"shell < TI > < 5 section points > : SNEG, (fraction = -1.0)",133.769
C:/Users/srbb21/AppData/Local/Temp/rx18_gr30001521653382.841.odb,RELAX,Increment    105: Step Time =    1.000,SHELL-1,1680,7.9634,2.75,16.1407,ASSEMBLY_SHELL-1_ALLEL,TI,"shell < TI > < 5 section points > : SPOS, (fraction = 1.0)",122.92
C:/Users/srbb21/AppData/Local/Temp/rx18_gr30001521653382.841.odb,RELAX,Increment    105: Step Time =    1.000,SHELL-1,1680,7.9634,2.75,16.1407,ASSEMBLY_SHELL-1_ALLEL,TI,"shell < TI > < 5 section points > : SNEG, (fraction = -1.0)",133.769
C:/Users/srbb21/AppData/Local/Temp/rx18_gr30001521653382.841.odb,RELAX,Increment    105: Step Time =    1.000,SHELL-1,1681,7.9634,3.25,16.1407,ASSEMBLY_SHELL-1_ALLEL,TI,"shell < TI > < 5 section points > : SNEG, (fraction = -1.0)",133.649
C:/Users/srbb21/AppData/Local/Temp/rx18_gr30001521653382.841.odb,RELAX,Increment    105: Step Time =    1.000,SHELL-1,1681,7.9634,3.25,16.1407,ASSEMBLY_SHELL-1_ALLEL,TI,"shell < TI > < 5 section points > : SPOS, (fraction = 1.0)",122.168
C:/Users/srbb21/AppData/Local/Temp/rx18_gr30001521653382.841.odb,RELAX,Increment    105: Step Time =    1.000,SHELL-1,1682,7.9634,3.75,16.1407,ASSEMBLY_SHELL-1_ALLEL,TI,"shell < TI > < 5 section points > : SPOS, (fraction = 1.0)",121.486
C:/Users/srbb21/AppData/Local/Temp/rx18_gr30001521653382.841.odb,RELAX,Increment    105: Step Time =    1.000,SHELL-1,1682,7.9634,3.75,16.1407,ASSEMBLY_SHELL-1_ALLEL,TI,"shell < TI > < 5 section points > : SNEG, (fraction = -1.0)",133.334
C:/Users/srbb21/AppData/Local/Temp/rx18_gr30001521653382.841.odb,RELAX,Increment    105: Step Time =    1.000,SHELL-1,1683,7.9634,4.25,16.1407,ASSEMBLY_SHELL-1_ALLEL,TI,"shell < TI > < 5 section points > : SPOS, (fraction = 1.0)",120.971
C:/Users/srbb21/AppData/Local/Temp/rx18_gr30001521653382.841.odb,RELAX,Increment    105: Step Time =    1.000,SHELL-1,1683,7.9634,4.25,16.1407,ASSEMBLY_SHELL-1_ALLEL,TI,"shell < TI > < 5 section points > : SNEG, (fraction = -1.0)",132.727
C:/Users/srbb21/AppData/Local/Temp/rx18_gr30001521653382.841.odb,RELAX,Increment    105: Step Time =    1.000,SHELL-1,1684,7.9634,4.75,16.1407,ASSEMBLY_SHELL-1_ALLEL,TI,"shell < TI > < 5 section points > : SPOS, (fraction = 1.0)",120.738
C:/Users/srbb21/AppData/Local/Temp/rx18_gr30001521653382.841.odb,RELAX,Increment    105: Step Time =    1.000,SHELL-1,1684,7.9634,4.75,16.1407,ASSEMBLY_SHELL-1_ALLEL,TI,"shell < TI > < 5 section points > : SNEG, (fraction = -1.0)",131.713
C:/Users/srbb21/AppData/Local/Temp/rx18_gr30001521653382.841.odb,RELAX,Increment    105: Step Time =    1.000,SHELL-1,1685,7.9634,5.25,16.1407,ASSEMBLY_SHELL-1_ALLEL,TI,"shell < TI > < 5 section points > : SNEG, (fraction = -1.0)",130.16
C:/Users/srbb21/AppData/Local/Temp/rx18_gr30001521653382.841.odb,RELAX,Increment    105: Step Time =    1.000,SHELL-1,1685,7.9634,5.25,16.1407,ASSEMBLY_SHELL-1_ALLEL,TI,"shell < TI > < 5 section points > : SPOS, (fraction = 1.0)",120.918
C:/Users/srbb21/AppData/Local/Temp/rx18_gr30001521653382.841.odb,RELAX,Increment    105: Step Time =    1.000,SHELL-1,1686,7.9634,5.75,16.1407,ASSEMBLY_SHELL-1_ALLEL,TI,"shell < TI > < 5 section points > : SPOS, (fraction = 1.0)",121.654
C:/Users/srbb21/AppData/Local/Temp/rx18_gr30001521653382.841.odb,RELAX,Increment    105: Step Time =    1.000,SHELL-1,1686,7.9634,5.75,16.1407,ASSEMBLY_SHELL-1_ALLEL,TI,"shell < TI > < 5 section points > : SNEG, (fraction = -1.0)",127.928
C:/Users/srbb21/AppData/Local/Temp/rx18_gr30001521653382.841.odb,RELAX,Increment    105: Step Time =    1.000,SHELL-1,1687,7.9634,6.25,16.1407,ASSEMBLY_SHELL-1_ALLEL,TI,"shell < TI > < 5 section points > : SPOS, (fraction = 1.0)",123.094
C:/Users/srbb21/AppData/Local/Temp/rx18_gr30001521653382.841.odb,RELAX,Increment    105: Step Time =    1.000,SHELL-1,1687,7.9634,6.25,16.1407,ASSEMBLY_SHELL-1_ALLEL,TI,"shell < TI > < 5 section points > : SNEG, (fraction = -1.0)",124.884
C:/Users/srbb21/AppData/Local/Temp/rx18_gr30001521653382.841.odb,RELAX,Increment    105: Step Time =    1.000,SHELL-1,1688,7.9634,6.75,16.1407,ASSEMBLY_SHELL-1_ALLEL,TI,"shell < TI > < 5 section points > : SPOS, (fraction = 1.0)",125.375
C:/Users/srbb21/AppData/Local/Temp/rx18_gr30001521653382.841.odb,RELAX,Increment    105: Step Time =    1.000,SHELL-1,1688,7.9634,6.75,16.1407,ASSEMBLY_SHELL-1_ALLEL,TI,"shell < TI > < 5 section points > : SNEG, (fraction = -1.0)",120.915
C:/Users/srbb21/AppData/Local/Temp/rx18_gr30001521653382.841.odb,RELAX,Increment    105: Step Time =    1.000,SHELL-1,1689,7.9634,7.25,16.1407,ASSEMBLY_SHELL-1_ALLEL,TI,"shell < TI > < 5 section points > : SNEG, (fraction = -1.0)",115.97
C:/Users/srbb21/AppData/Local/Temp/rx18_gr30001521653382.841.odb,RELAX,Increment    105: Step Time =    1.000,SHELL-1,1689,7.9634,7.25,16.1407,ASSEMBLY_SHELL-1_ALLEL,TI,"shell < TI > < 5 section points > : SPOS, (fraction = 1.0)",128.588
C:/Users/srbb21/AppData/Local/Temp/rx18_gr30001521653382.841.odb,RELAX,Increment    105: Step Time =    1.000,SHELL-1,1690,7.9634,7.75,16.1407,ASSEMBLY_SHELL-1_ALLEL,TI,"shell < TI > < 5 section points > : SPOS, (fraction = 1.0)",132.755
C:/Users/srbb21/AppData/Local/Temp/rx18_gr30001521653382.841.odb,RELAX,Increment    105: Step Time =    1.000,SHELL-1,1690,7.9634,7.75,16.1407,ASSEMBLY_SHELL-1_ALLEL,TI,"shell < TI > < 5 section points > : SNEG, (fraction = -1.0)",110.073
C:/Users/srbb21/AppData/Local/Temp/rx18_gr30001521653382.841.odb,RELAX,Increment    105: Step Time =    1.000,SHELL-1,1691,7.9634,8.25,16.1407,ASSEMBLY_SHELL-1_ALLEL,TI,"shell < TI > < 5 section points > : SPOS, (fraction = 1.0)",137.772
C:/Users/srbb21/AppData/Local/Temp/rx18_gr30001521653382.841.odb,RELAX,Increment    105: Step Time =    1.000,SHELL-1,1691,7.9634,8.25,16.1407,ASSEMBLY_SHELL-1_ALLEL,TI,"shell < TI > < 5 section points > : SNEG, (fraction = -1.0)",103.402
C:/Users/srbb21/AppData/Local/Temp/rx18_gr30001521653382.841.odb,RELAX,Increment    105: Step Time =    1.000,SHELL-1,1692,7.9634,8.75,16.1407,ASSEMBLY_SHELL-1_ALLEL,TI,"shell < TI > < 5 section points > : SPOS, (fraction = 1.0)",143.4
C:/Users/srbb21/AppData/Local/Temp/rx18_gr30001521653382.841.odb,RELAX,Increment    105: Step Time =    1.000,SHELL-1,1692,7.9634,8.75,16.1407,ASSEMBLY_SHELL-1_ALLEL,TI,"shell < TI > < 5 section points > : SNEG, (fraction = -1.0)",96.288
C:/Users/srbb21/AppData/Local/Temp/rx18_gr30001521653382.841.odb,RELAX,Increment    105: Step Time =    1.000,SHELL-1,1693,8.40863,-8.75,15.9133,ASSEMBLY_SHELL-1_ALLEL,TI,"shell < TI > < 5 section points > : SPOS, (fraction = 1.0)",144.153
C:/Users/srbb21/AppData/Local/Temp/rx18_gr30001521653382.841.odb,RELAX,Increment    105: Step Time =    1.000,SHELL-1,1693,8.40863,-8.75,15.9133,ASSEMBLY_SHELL-1_ALLEL,TI,"shell < TI > < 5 section points > : SNEG, (fraction = -1.0)",93.7189
C:/Users/srbb21/AppData/Local/Temp/rx18_gr30001521653382.841.odb,RELAX,Increment    105: Step Time =    1.000,SHELL-1,1694,8.40863,-8.25,15.9133,ASSEMBLY_SHELL-1_ALLEL,TI,"shell < TI > < 5 section points > : SNEG, (fraction = -1.0)",101.872
C:/Users/srbb21/AppData/Local/Temp/rx18_gr30001521653382.841.odb,RELAX,Increment    105: Step Time =    1.000,SHELL-1,1694,8.40863,-8.25,15.9133,ASSEMBLY_SHELL-1_ALLEL,TI,"shell < TI > < 5 section points > : SPOS, (fraction = 1.0)",137.649
C:/Users/srbb21/AppData/Local/Temp/rx18_gr30001521653382.841.odb,RELAX,Increment    105: Step Time =    1.000,SHELL-1,1695,8.40863,-7.75,15.9133,ASSEMBLY_SHELL-1_ALLEL,TI,"shell < TI > < 5 section points > : SPOS, (fraction = 1.0)",132.041
C:/Users/srbb21/AppData/Local/Temp/rx18_gr30001521653382.841.odb,RELAX,Increment    105: Step Time =    1.000,SHELL-1,1695,8.40863,-7.75,15.9133,ASSEMBLY_SHELL-1_ALLEL,TI,"shell < TI > < 5 section points > : SNEG, (fraction = -1.0)",109.365
C:/Users/srbb21/AppData/Local/Temp/rx18_gr30001521653382.841.odb,RELAX,Increment    105: Step Time =    1.000,SHELL-1,1696,8.40863,-7.25,15.9133,ASSEMBLY_SHELL-1_ALLEL,TI,"shell < TI > < 5 section points > : SPOS, (fraction = 1.0)",127.593
C:/Users/srbb21/AppData/Local/Temp/rx18_gr30001521653382.841.odb,RELAX,Increment    105: Step Time =    1.000,SHELL-1,1696,8.40863,-7.25,15.9133,ASSEMBLY_SHELL-1_ALLEL,TI,"shell < TI > < 5 section points > : SNEG, (fraction = -1.0)",115.838
C:/Users/srbb21/AppData/Local/Temp/rx18_gr30001521653382.841.odb,RELAX,Increment    105: Step Time =    1.000,SHELL-1,1697,8.40863,-6.75,15.9133,ASSEMBLY_SHELL-1_ALLEL,TI,"shell < TI > < 5 section points > : SPOS, (fraction = 1.0)",124.368
C:/Users/srbb21/AppData/Local/Temp/rx18_gr30001521653382.841.odb,RELAX,Increment    105: Step Time =    1.000,SHELL-1,1697,8.40863,-6.75,15.9133,ASSEMBLY_SHELL-1_ALLEL,TI,"shell < TI > < 5 section points > : SNEG, (fraction = -1.0)",121.137
C:/Users/srbb21/AppData/Local/Temp/rx18_gr30001521653382.841.odb,RELAX,Increment    105: Step Time =    1.000,SHELL-1,1698,8.40863,-6.25,15.9133,ASSEMBLY_SHELL-1_ALLEL,TI,"shell < TI > < 5 section points > : SNEG, (fraction = -1.0)",125.283
C:/Users/srbb21/AppData/Local/Temp/rx18_gr30001521653382.841.odb,RELAX,Increment    105: Step Time =    1.000,SHELL-1,1698,8.40863,-6.25,15.9133,ASSEMBLY_SHELL-1_ALLEL,TI,"shell < TI > < 5 section points > : SPOS, (fraction = 1.0)",122.285
C:/Users/srbb21/AppData/Local/Temp/rx18_gr30001521653382.841.odb,RELAX,Increment    105: Step Time =    1.000,SHELL-1,1699,8.40863,-5.75,15.9133,ASSEMBLY_SHELL-1_ALLEL,TI,"shell < TI > < 5 section points > : SPOS, (fraction = 1.0)",121.177
C:/Users/srbb21/AppData/Local/Temp/rx18_gr30001521653382.841.odb,RELAX,Increment    105: Step Time =    1.000,SHELL-1,1699,8.40863,-5.75,15.9133,ASSEMBLY_SHELL-1_ALLEL,TI,"shell < TI > < 5 section points > : SNEG, (fraction = -1.0)",128.383
C:/Users/srbb21/AppData/Local/Temp/rx18_gr30001521653382.841.odb,RELAX,Increment    105: Step Time =    1.000,SHELL-1,1700,8.40863,-5.25,15.9133,ASSEMBLY_SHELL-1_ALLEL,TI,"shell < TI > < 5 section points > : SPOS, (fraction = 1.0)",120.841
C:/Users/srbb21/AppData/Local/Temp/rx18_gr30001521653382.841.odb,RELAX,Increment    105: Step Time =    1.000,SHELL-1,1700,8.40863,-5.25,15.9133,ASSEMBLY_SHELL-1_ALLEL,TI,"shell < TI > < 5 section points > : SNEG, (fraction = -1.0)",130.595
C:/Users/srbb21/AppData/Local/Temp/rx18_gr30001521653382.841.odb,RELAX,Increment    105: Step Time =    1.000,SHELL-1,1701,8.40863,-4.75,15.9133,ASSEMBLY_SHELL-1_ALLEL,TI,"shell < TI > < 5 section points > : SPOS, (fraction = 1.0)",121.078
C:/Users/srbb21/AppData/Local/Temp/rx18_gr30001521653382.841.odb,RELAX,Increment    105: Step Time =    1.000,SHELL-1,1701,8.40863,-4.75,15.9133,ASSEMBLY_SHELL-1_ALLEL,TI,"shell < TI > < 5 section points > : SNEG, (fraction = -1.0)",132.091
C:/Users/srbb21/AppData/Local/Temp/rx18_gr30001521653382.841.odb,RELAX,Increment    105: Step Time =    1.000,SHELL-1,1702,8.40863,-4.25,15.9133,ASSEMBLY_SHELL-1_ALLEL,TI,"shell < TI > < 5 section points > : SNEG, (fraction = -1.0)",133.038
C:/Users/srbb21/AppData/Local/Temp/rx18_gr30001521653382.841.odb,RELAX,Increment    105: Step Time =    1.000,SHELL-1,1702,8.40863,-4.25,15.9133,ASSEMBLY_SHELL-1_ALLEL,TI,"shell < TI > < 5 section points > : SPOS, (fraction = 1.0)",121.708
C:/Users/srbb21/AppData/Local/Temp/rx18_gr30001521653382.841.odb,RELAX,Increment    105: Step Time =    1.000,SHELL-1,1703,8.40863,-3.75,15.9133,ASSEMBLY_SHELL-1_ALLEL,TI,"shell < TI > < 5 section points > : SPOS, (fraction = 1.0)",122.58
C:/Users/srbb21/AppData/Local/Temp/rx18_gr30001521653382.841.odb,RELAX,Increment    105: Step Time =    1.000,SHELL-1,1703,8.40863,-3.75,15.9133,ASSEMBLY_SHELL-1_ALLEL,TI,"shell < TI > < 5 section points > : SNEG, (fraction = -1.0)",133.583
C:/Users/srbb21/AppData/Local/Temp/rx18_gr30001521653382.841.odb,RELAX,Increment    105: Step Time =    1.000,SHELL-1,1704,8.40863,-3.25,15.9133,ASSEMBLY_SHELL-1_ALLEL,TI,"shell < TI > < 5 section points > : SPOS, (fraction = 1.0)",123.568
C:/Users/srbb21/AppData/Local/Temp/rx18_gr30001521653382.841.odb,RELAX,Increment    105: Step Time =    1.000,SHELL-1,1704,8.40863,-3.25,15.9133,ASSEMBLY_SHELL-1_ALLEL,TI,"shell < TI > < 5 section points > : SNEG, (fraction = -1.0)",133.85
C:/Users/srbb21/AppData/Local/Temp/rx18_gr30001521653382.841.odb,RELAX,Increment    105: Step Time =    1.000,SHELL-1,1705,8.40863,-2.75,15.9133,ASSEMBLY_SHELL-1_ALLEL,TI,"shell < TI > < 5 section points > : SPOS, (fraction = 1.0)",124.574
C:/Users/srbb21/AppData/Local/Temp/rx18_gr30001521653382.841.odb,RELAX,Increment    105: Step Time =    1.000,SHELL-1,1705,8.40863,-2.75,15.9133,ASSEMBLY_SHELL-1_ALLEL,TI,"shell < TI > < 5 section points > : SNEG, (fraction = -1.0)",133.934
C:/Users/srbb21/AppData/Local/Temp/rx18_gr30001521653382.841.odb,RELAX,Increment    105: Step Time =    1.000,SHELL-1,1706,8.40863,-2.25,15.9133,ASSEMBLY_SHELL-1_ALLEL,TI,"shell < TI > < 5 section points > : SNEG, (fraction = -1.0)",133.914
C:/Users/srbb21/AppData/Local/Temp/rx18_gr30001521653382.841.odb,RELAX,Increment    105: Step Time =    1.000,SHELL-1,1706,8.40863,-2.25,15.9133,ASSEMBLY_SHELL-1_ALLEL,TI,"shell < TI > < 5 section points > : SPOS, (fraction = 1.0)",125.519
C:/Users/srbb21/AppData/Local/Temp/rx18_gr30001521653382.841.odb,RELAX,Increment    105: Step Time =    1.000,SHELL-1,1707,8.40863,-1.75,15.9133,ASSEMBLY_SHELL-1_ALLEL,TI,"shell < TI > < 5 section points > : SPOS, (fraction = 1.0)",126.341
C:/Users/srbb21/AppData/Local/Temp/rx18_gr30001521653382.841.odb,RELAX,Increment    105: Step Time =    1.000,SHELL-1,1707,8.40863,-1.75,15.9133,ASSEMBLY_SHELL-1_ALLEL,TI,"shell < TI > < 5 section points > : SNEG, (fraction = -1.0)",133.842
C:/Users/srbb21/AppData/Local/Temp/rx18_gr30001521653382.841.odb,RELAX,Increment    105: Step Time =    1.000,SHELL-1,1708,8.40863,-1.25,15.9133,ASSEMBLY_SHELL-1_ALLEL,TI,"shell < TI > < 5 section points > : SPOS, (fraction = 1.0)",126.994
C:/Users/srbb21/AppData/Local/Temp/rx18_gr30001521653382.841.odb,RELAX,Increment    105: Step Time =    1.000,SHELL-1,1708,8.40863,-1.25,15.9133,ASSEMBLY_SHELL-1_ALLEL,TI,"shell < TI > < 5 section points > : SNEG, (fraction = -1.0)",133.759
C:/Users/srbb21/AppData/Local/Temp/rx18_gr30001521653382.841.odb,RELAX,Increment    105: Step Time =    1.000,SHELL-1,1709,8.40863,-0.75,15.9133,ASSEMBLY_SHELL-1_ALLEL,TI,"shell < TI > < 5 section points > : SPOS, (fraction = 1.0)",127.448
C:/Users/srbb21/AppData/Local/Temp/rx18_gr30001521653382.841.odb,RELAX,Increment    105: Step Time =    1.000,SHELL-1,1709,8.40863,-0.75,15.9133,ASSEMBLY_SHELL-1_ALLEL,TI,"shell < TI > < 5 section points > : SNEG, (fraction = -1.0)",133.69
C:/Users/srbb21/AppData/Local/Temp/rx18_gr30001521653382.841.odb,RELAX,Increment    105: Step Time =    1.000,SHELL-1,1710,8.40863,-0.25,15.9133,ASSEMBLY_SHELL-1_ALLEL,TI,"shell < TI > < 5 section points > : SPOS, (fraction = 1.0)",127.679
C:/Users/srbb21/AppData/Local/Temp/rx18_gr30001521653382.841.odb,RELAX,Increment    105: Step Time =    1.000,SHELL-1,1710,8.40863,-0.25,15.9133,ASSEMBLY_SHELL-1_ALLEL,TI,"shell < TI > < 5 section points > : SNEG, (fraction = -1.0)",133.652
C:/Users/srbb21/AppData/Local/Temp/rx18_gr30001521653382.841.odb,RELAX,Increment    105: Step Time =    1.000,SHELL-1,1711,8.40863,0.25,15.9133,ASSEMBLY_SHELL-1_ALLEL,TI,"shell < TI > < 5 section points > : SNEG, (fraction = -1.0)",133.652
C:/Users/srbb21/AppData/Local/Temp/rx18_gr30001521653382.841.odb,RELAX,Increment    105: Step Time =    1.000,SHELL-1,1711,8.40863,0.25,15.9133,ASSEMBLY_SHELL-1_ALLEL,TI,"shell < TI > < 5 section points > : SPOS, (fraction = 1.0)",127.679
C:/Users/srbb21/AppData/Local/Temp/rx18_gr30001521653382.841.odb,RELAX,Increment    105: Step Time =    1.000,SHELL-1,1712,8.40863,0.75,15.9133,ASSEMBLY_SHELL-1_ALLEL,TI,"shell < TI > < 5 section points > : SPOS, (fraction = 1.0)",127.448
C:/Users/srbb21/AppData/Local/Temp/rx18_gr30001521653382.841.odb,RELAX,Increment    105: Step Time =    1.000,SHELL-1,1712,8.40863,0.75,15.9133,ASSEMBLY_SHELL-1_ALLEL,TI,"shell < TI > < 5 section points > : SNEG, (fraction = -1.0)",133.69
C:/Users/srbb21/AppData/Local/Temp/rx18_gr30001521653382.841.odb,RELAX,Increment    105: Step Time =    1.000,SHELL-1,1713,8.40863,1.25,15.9133,ASSEMBLY_SHELL-1_ALLEL,TI,"shell < TI > < 5 section points > : SPOS, (fraction = 1.0)",126.994
C:/Users/srbb21/AppData/Local/Temp/rx18_gr30001521653382.841.odb,RELAX,Increment    105: Step Time =    1.000,SHELL-1,1713,8.40863,1.25,15.9133,ASSEMBLY_SHELL-1_ALLEL,TI,"shell < TI > < 5 section points > : SNEG, (fraction = -1.0)",133.759
C:/Users/srbb21/AppData/Local/Temp/rx18_gr30001521653382.841.odb,RELAX,Increment    105: Step Time =    1.000,SHELL-1,1714,8.40863,1.75,15.9133,ASSEMBLY_SHELL-1_ALLEL,TI,"shell < TI > < 5 section points > : SPOS, (fraction = 1.0)",126.341
C:/Users/srbb21/AppData/Local/Temp/rx18_gr30001521653382.841.odb,RELAX,Increment    105: Step Time =    1.000,SHELL-1,1714,8.40863,1.75,15.9133,ASSEMBLY_SHELL-1_ALLEL,TI,"shell < TI > < 5 section points > : SNEG, (fraction = -1.0)",133.842
C:/Users/srbb21/AppData/Local/Temp/rx18_gr30001521653382.841.odb,RELAX,Increment    105: Step Time =    1.000,SHELL-1,1715,8.40863,2.25,15.9133,ASSEMBLY_SHELL-1_ALLEL,TI,"shell < TI > < 5 section points > : SNEG, (fraction = -1.0)",133.914
C:/Users/srbb21/AppData/Local/Temp/rx18_gr30001521653382.841.odb,RELAX,Increment    105: Step Time =    1.000,SHELL-1,1715,8.40863,2.25,15.9133,ASSEMBLY_SHELL-1_ALLEL,TI,"shell < TI > < 5 section points > : SPOS, (fraction = 1.0)",125.519
C:/Users/srbb21/AppData/Local/Temp/rx18_gr30001521653382.841.odb,RELAX,Increment    105: Step Time =    1.000,SHELL-1,1716,8.40863,2.75,15.9133,ASSEMBLY_SHELL-1_ALLEL,TI,"shell < TI > < 5 section points > : SPOS, (fraction = 1.0)",124.574
C:/Users/srbb21/AppData/Local/Temp/rx18_gr30001521653382.841.odb,RELAX,Increment    105: Step Time =    1.000,SHELL-1,1716,8.40863,2.75,15.9133,ASSEMBLY_SHELL-1_ALLEL,TI,"shell < TI > < 5 section points > : SNEG, (fraction = -1.0)",133.934
C:/Users/srbb21/AppData/Local/Temp/rx18_gr30001521653382.841.odb,RELAX,Increment    105: Step Time =    1.000,SHELL-1,1717,8.40863,3.25,15.9133,ASSEMBLY_SHELL-1_ALLEL,TI,"shell < TI > < 5 section points > : SPOS, (fraction = 1.0)",123.568
C:/Users/srbb21/AppData/Local/Temp/rx18_gr30001521653382.841.odb,RELAX,Increment    105: Step Time =    1.000,SHELL-1,1717,8.40863,3.25,15.9133,ASSEMBLY_SHELL-1_ALLEL,TI,"shell < TI > < 5 section points > : SNEG, (fraction = -1.0)",133.85
C:/Users/srbb21/AppData/Local/Temp/rx18_gr30001521653382.841.odb,RELAX,Increment    105: Step Time =    1.000,SHELL-1,1718,8.40863,3.75,15.9133,ASSEMBLY_SHELL-1_ALLEL,TI,"shell < TI > < 5 section points > : SPOS, (fraction = 1.0)",122.58
C:/Users/srbb21/AppData/Local/Temp/rx18_gr30001521653382.841.odb,RELAX,Increment    105: Step Time =    1.000,SHELL-1,1718,8.40863,3.75,15.9133,ASSEMBLY_SHELL-1_ALLEL,TI,"shell < TI > < 5 section points > : SNEG, (fraction = -1.0)",133.583
C:/Users/srbb21/AppData/Local/Temp/rx18_gr30001521653382.841.odb,RELAX,Increment    105: Step Time =    1.000,SHELL-1,1719,8.40863,4.25,15.9133,ASSEMBLY_SHELL-1_ALLEL,TI,"shell < TI > < 5 section points > : SNEG, (fraction = -1.0)",133.038
C:/Users/srbb21/AppData/Local/Temp/rx18_gr30001521653382.841.odb,RELAX,Increment    105: Step Time =    1.000,SHELL-1,1719,8.40863,4.25,15.9133,ASSEMBLY_SHELL-1_ALLEL,TI,"shell < TI > < 5 section points > : SPOS, (fraction = 1.0)",121.708
C:/Users/srbb21/AppData/Local/Temp/rx18_gr30001521653382.841.odb,RELAX,Increment    105: Step Time =    1.000,SHELL-1,1720,8.40863,4.75,15.9133,ASSEMBLY_SHELL-1_ALLEL,TI,"shell < TI > < 5 section points > : SPOS, (fraction = 1.0)",121.078
C:/Users/srbb21/AppData/Local/Temp/rx18_gr30001521653382.841.odb,RELAX,Increment    105: Step Time =    1.000,SHELL-1,1720,8.40863,4.75,15.9133,ASSEMBLY_SHELL-1_ALLEL,TI,"shell < TI > < 5 section points > : SNEG, (fraction = -1.0)",132.091
C:/Users/srbb21/AppData/Local/Temp/rx18_gr30001521653382.841.odb,RELAX,Increment    105: Step Time =    1.000,SHELL-1,1721,8.40863,5.25,15.9133,ASSEMBLY_SHELL-1_ALLEL,TI,"shell < TI > < 5 section points > : SPOS, (fraction = 1.0)",120.841
C:/Users/srbb21/AppData/Local/Temp/rx18_gr30001521653382.841.odb,RELAX,Increment    105: Step Time =    1.000,SHELL-1,1721,8.40863,5.25,15.9133,ASSEMBLY_SHELL-1_ALLEL,TI,"shell < TI > < 5 section points > : SNEG, (fraction = -1.0)",130.595
C:/Users/srbb21/AppData/Local/Temp/rx18_gr30001521653382.841.odb,RELAX,Increment    105: Step Time =    1.000,SHELL-1,1722,8.40863,5.75,15.9133,ASSEMBLY_SHELL-1_ALLEL,TI,"shell < TI > < 5 section points > : SPOS, (fraction = 1.0)",121.177
C:/Users/srbb21/AppData/Local/Temp/rx18_gr30001521653382.841.odb,RELAX,Increment    105: Step Time =    1.000,SHELL-1,1722,8.40863,5.75,15.9133,ASSEMBLY_SHELL-1_ALLEL,TI,"shell < TI > < 5 section points > : SNEG, (fraction = -1.0)",128.383
C:/Users/srbb21/AppData/Local/Temp/rx18_gr30001521653382.841.odb,RELAX,Increment    105: Step Time =    1.000,SHELL-1,1723,8.40863,6.25,15.9133,ASSEMBLY_SHELL-1_ALLEL,TI,"shell < TI > < 5 section points > : SNEG, (fraction = -1.0)",125.283
C:/Users/srbb21/AppData/Local/Temp/rx18_gr30001521653382.841.odb,RELAX,Increment    105: Step Time =    1.000,SHELL-1,1723,8.40863,6.25,15.9133,ASSEMBLY_SHELL-1_ALLEL,TI,"shell < TI > < 5 section points > : SPOS, (fraction = 1.0)",122.285
C:/Users/srbb21/AppData/Local/Temp/rx18_gr30001521653382.841.odb,RELAX,Increment    105: Step Time =    1.000,SHELL-1,1724,8.40863,6.75,15.9133,ASSEMBLY_SHELL-1_ALLEL,TI,"shell < TI > < 5 section points > : SPOS, (fraction = 1.0)",124.368
C:/Users/srbb21/AppData/Local/Temp/rx18_gr30001521653382.841.odb,RELAX,Increment    105: Step Time =    1.000,SHELL-1,1724,8.40863,6.75,15.9133,ASSEMBLY_SHELL-1_ALLEL,TI,"shell < TI > < 5 section points > : SNEG, (fraction = -1.0)",121.137
C:/Users/srbb21/AppData/Local/Temp/rx18_gr30001521653382.841.odb,RELAX,Increment    105: Step Time =    1.000,SHELL-1,1725,8.40863,7.25,15.9133,ASSEMBLY_SHELL-1_ALLEL,TI,"shell < TI > < 5 section points > : SPOS, (fraction = 1.0)",127.593
C:/Users/srbb21/AppData/Local/Temp/rx18_gr30001521653382.841.odb,RELAX,Increment    105: Step Time =    1.000,SHELL-1,1725,8.40863,7.25,15.9133,ASSEMBLY_SHELL-1_ALLEL,TI,"shell < TI > < 5 section points > : SNEG, (fraction = -1.0)",115.838
C:/Users/srbb21/AppData/Local/Temp/rx18_gr30001521653382.841.odb,RELAX,Increment    105: Step Time =    1.000,SHELL-1,1726,8.40863,7.75,15.9133,ASSEMBLY_SHELL-1_ALLEL,TI,"shell < TI > < 5 section points > : SPOS, (fraction = 1.0)",132.041
C:/Users/srbb21/AppData/Local/Temp/rx18_gr30001521653382.841.odb,RELAX,Increment    105: Step Time =    1.000,SHELL-1,1726,8.40863,7.75,15.9133,ASSEMBLY_SHELL-1_ALLEL,TI,"shell < TI > < 5 section points > : SNEG, (fraction = -1.0)",109.365
C:/Users/srbb21/AppData/Local/Temp/rx18_gr30001521653382.841.odb,RELAX,Increment    105: Step Time =    1.000,SHELL-1,1727,8.40863,8.25,15.9133,ASSEMBLY_SHELL-1_ALLEL,TI,"shell < TI > < 5 section points > : SPOS, (fraction = 1.0)",137.649
C:/Users/srbb21/AppData/Local/Temp/rx18_gr30001521653382.841.odb,RELAX,Increment    105: Step Time =    1.000,SHELL-1,1727,8.40863,8.25,15.9133,ASSEMBLY_SHELL-1_ALLEL,TI,"shell < TI > < 5 section points > : SNEG, (fraction = -1.0)",101.872
C:/Users/srbb21/AppData/Local/Temp/rx18_gr30001521653382.841.odb,RELAX,Increment    105: Step Time =    1.000,SHELL-1,1728,8.40863,8.75,15.9133,ASSEMBLY_SHELL-1_ALLEL,TI,"shell < TI > < 5 section points > : SNEG, (fraction = -1.0)",93.7189
C:/Users/srbb21/AppData/Local/Temp/rx18_gr30001521653382.841.odb,RELAX,Increment    105: Step Time =    1.000,SHELL-1,1728,8.40863,8.75,15.9133,ASSEMBLY_SHELL-1_ALLEL,TI,"shell < TI > < 5 section points > : SPOS, (fraction = 1.0)",144.153
C:/Users/srbb21/AppData/Local/Temp/rx18_gr30001521653382.841.odb,RELAX,Increment    105: Step Time =    1.000,SHELL-1,1729,8.84736,-8.75,15.6736,ASSEMBLY_SHELL-1_ALLEL,TI,"shell < TI > < 5 section points > : SPOS, (fraction = 1.0)",144.739
C:/Users/srbb21/AppData/Local/Temp/rx18_gr30001521653382.841.odb,RELAX,Increment    105: Step Time =    1.000,SHELL-1,1729,8.84736,-8.75,15.6736,ASSEMBLY_SHELL-1_ALLEL,TI,"shell < TI > < 5 section points > : SNEG, (fraction = -1.0)",90.4838
C:/Users/srbb21/AppData/Local/Temp/rx18_gr30001521653382.841.odb,RELAX,Increment    105: Step Time =    1.000,SHELL-1,1730,8.84736,-8.25,15.6736,ASSEMBLY_SHELL-1_ALLEL,TI,"shell < TI > < 5 section points > : SPOS, (fraction = 1.0)",137.12
C:/Users/srbb21/AppData/Local/Temp/rx18_gr30001521653382.841.odb,RELAX,Increment    105: Step Time =    1.000,SHELL-1,1730,8.84736,-8.25,15.6736,ASSEMBLY_SHELL-1_ALLEL,TI,"shell < TI > < 5 section points > : SNEG, (fraction = -1.0)",99.9025
C:/Users/srbb21/AppData/Local/Temp/rx18_gr30001521653382.841.odb,RELAX,Increment    105: Step Time =    1.000,SHELL-1,1731,8.84736,-7.75,15.6736,ASSEMBLY_SHELL-1_ALLEL,TI,"shell < TI > < 5 section points > : SPOS, (fraction = 1.0)",130.839
C:/Users/srbb21/AppData/Local/Temp/rx18_gr30001521653382.841.odb,RELAX,Increment    105: Step Time =    1.000,SHELL-1,1731,8.84736,-7.75,15.6736,ASSEMBLY_SHELL-1_ALLEL,TI,"shell < TI > < 5 section points > : SNEG, (fraction = -1.0)",108.31
C:/Users/srbb21/AppData/Local/Temp/rx18_gr30001521653382.841.odb,RELAX,Increment    105: Step Time =    1.000,SHELL-1,1732,8.84736,-7.25,15.6736,ASSEMBLY_SHELL-1_ALLEL,TI,"shell < TI > < 5 section points > : SNEG, (fraction = -1.0)",115.37
C:/Users/srbb21/AppData/Local/Temp/rx18_gr30001521653382.841.odb,RELAX,Increment    105: Step Time =    1.000,SHELL-1,1732,8.84736,-7.25,15.6736,ASSEMBLY_SHELL-1_ALLEL,TI,"shell < TI > < 5 section points > : SPOS, (fraction = 1.0)",126.136
C:/Users/srbb21/AppData/Local/Temp/rx18_gr30001521653382.841.odb,RELAX,Increment    105: Step Time =    1.000,SHELL-1,1733,8.84736,-6.75,15.6736,ASSEMBLY_SHELL-1_ALLEL,TI,"shell < TI > < 5 section points > : SPOS, (fraction = 1.0)",123.001
C:/Users/srbb21/AppData/Local/Temp/rx18_gr30001521653382.841.odb,RELAX,Increment    105: Step Time =    1.000,SHELL-1,1733,8.84736,-6.75,15.6736,ASSEMBLY_SHELL-1_ALLEL,TI,"shell < TI > < 5 section points > : SNEG, (fraction = -1.0)",120.977
C:/Users/srbb21/AppData/Local/Temp/rx18_gr30001521653382.841.odb,RELAX,Increment    105: Step Time =    1.000,SHELL-1,1734,8.84736,-6.25,15.6736,ASSEMBLY_SHELL-1_ALLEL,TI,"shell < TI > < 5 section points > : SPOS, (fraction = 1.0)",121.241
C:/Users/srbb21/AppData/Local/Temp/rx18_gr30001521653382.841.odb,RELAX,Increment    105: Step Time =    1.000,SHELL-1,1734,8.84736,-6.25,15.6736,ASSEMBLY_SHELL-1_ALLEL,TI,"shell < TI > < 5 section points > : SNEG, (fraction = -1.0)",125.238
C:/Users/srbb21/AppData/Local/Temp/rx18_gr30001521653382.841.odb,RELAX,Increment    105: Step Time =    1.000,SHELL-1,1735,8.84736,-5.75,15.6736,ASSEMBLY_SHELL-1_ALLEL,TI,"shell < TI > < 5 section points > : SPOS, (fraction = 1.0)",120.584
C:/Users/srbb21/AppData/Local/Temp/rx18_gr30001521653382.841.odb,RELAX,Increment    105: Step Time =    1.000,SHELL-1,1735,8.84736,-5.75,15.6736,ASSEMBLY_SHELL-1_ALLEL,TI,"shell < TI > < 5 section points > : SNEG, (fraction = -1.0)",128.329
C:/Users/srbb21/AppData/Local/Temp/rx18_gr30001521653382.841.odb,RELAX,Increment    105: Step Time =    1.000,SHELL-1,1736,8.84736,-5.25,15.6736,ASSEMBLY_SHELL-1_ALLEL,TI,"shell < TI > < 5 section points > : SNEG, (fraction = -1.0)",130.469
C:/Users/srbb21/AppData/Local/Temp/rx18_gr30001521653382.841.odb,RELAX,Increment    105: Step Time =    1.000,SHELL-1,1736,8.84736,-5.25,15.6736,ASSEMBLY_SHELL-1_ALLEL,TI,"shell < TI > < 5 section points > : SPOS, (fraction = 1.0)",120.741
C:/Users/srbb21/AppData/Local/Temp/rx18_gr30001521653382.841.odb,RELAX,Increment    105: Step Time =    1.000,SHELL-1,1737,8.84736,-4.75,15.6736,ASSEMBLY_SHELL-1_ALLEL,TI,"shell < TI > < 5 section points > : SPOS, (fraction = 1.0)",121.454
C:/Users/srbb21/AppData/Local/Temp/rx18_gr30001521653382.841.odb,RELAX,Increment    105: Step Time =    1.000,SHELL-1,1737,8.84736,-4.75,15.6736,ASSEMBLY_SHELL-1_ALLEL,TI,"shell < TI > < 5 section points > : SNEG, (fraction = -1.0)",131.873
C:/Users/srbb21/AppData/Local/Temp/rx18_gr30001521653382.841.odb,RELAX,Increment    105: Step Time =    1.000,SHELL-1,1738,8.84736,-4.25,15.6736,ASSEMBLY_SHELL-1_ALLEL,TI,"shell < TI > < 5 section points > : SPOS, (fraction = 1.0)",122.51
C:/Users/srbb21/AppData/Local/Temp/rx18_gr30001521653382.841.odb,RELAX,Increment    105: Step Time =    1.000,SHELL-1,1738,8.84736,-4.25,15.6736,ASSEMBLY_SHELL-1_ALLEL,TI,"shell < TI > < 5 section points > : SNEG, (fraction = -1.0)",132.733
C:/Users/srbb21/AppData/Local/Temp/rx18_gr30001521653382.841.odb,RELAX,Increment    105: Step Time =    1.000,SHELL-1,1739,8.84736,-3.75,15.6736,ASSEMBLY_SHELL-1_ALLEL,TI,"shell < TI > < 5 section points > : SPOS, (fraction = 1.0)",123.742
C:/Users/srbb21/AppData/Local/Temp/rx18_gr30001521653382.841.odb,RELAX,Increment    105: Step Time =    1.000,SHELL-1,1739,8.84736,-3.75,15.6736,ASSEMBLY_SHELL-1_ALLEL,TI,"shell < TI > < 5 section points > : SNEG, (fraction = -1.0)",133.209
C:/Users/srbb21/AppData/Local/Temp/rx18_gr30001521653382.841.odb,RELAX,Increment    105: Step Time =    1.000,SHELL-1,1740,8.84736,-3.25,15.6736,ASSEMBLY_SHELL-1_ALLEL,TI,"shell < TI > < 5 section points > : SNEG, (fraction = -1.0)",133.429
C:/Users/srbb21/AppData/Local/Temp/rx18_gr30001521653382.841.odb,RELAX,Increment    105: Step Time =    1.000,SHELL-1,1740,8.84736,-3.25,15.6736,ASSEMBLY_SHELL-1_ALLEL,TI,"shell < TI > < 5 section points > : SPOS, (fraction = 1.0)",125.025
C:/Users/srbb21/AppData/Local/Temp/rx18_gr30001521653382.841.odb,RELAX,Increment    105: Step Time =    1.000,SHELL-1,1741,8.84736,-2.75,15.6736,ASSEMBLY_SHELL-1_ALLEL,TI,"shell < TI > < 5 section points > : SPOS, (fraction = 1.0)",126.261
C:/Users/srbb21/AppData/Local/Temp/rx18_gr30001521653382.841.odb,RELAX,Increment    105: Step Time =    1.000,SHELL-1,1741,8.84736,-2.75,15.6736,ASSEMBLY_SHELL-1_ALLEL,TI,"shell < TI > < 5 section points > : SNEG, (fraction = -1.0)",133.488
C:/Users/srbb21/AppData/Local/Temp/rx18_gr30001521653382.841.odb,RELAX,Increment    105: Step Time =    1.000,SHELL-1,1742,8.84736,-2.25,15.6736,ASSEMBLY_SHELL-1_ALLEL,TI,"shell < TI > < 5 section points > : SPOS, (fraction = 1.0)",127.381
C:/Users/srbb21/AppData/Local/Temp/rx18_gr30001521653382.841.odb,RELAX,Increment    105: Step Time =    1.000,SHELL-1,1742,8.84736,-2.25,15.6736,ASSEMBLY_SHELL-1_ALLEL,TI,"shell < TI > < 5 section points > : SNEG, (fraction = -1.0)",133.456
C:/Users/srbb21/AppData/Local/Temp/rx18_gr30001521653382.841.odb,RELAX,Increment    105: Step Time =    1.000,SHELL-1,1743,8.84736,-1.75,15.6736,ASSEMBLY_SHELL-1_ALLEL,TI,"shell < TI > < 5 section points > : SPOS, (fraction = 1.0)",128.33
C:/Users/srbb21/AppData/Local/Temp/rx18_gr30001521653382.841.odb,RELAX,Increment    105: Step Time =    1.000,SHELL-1,1743,8.84736,-1.75,15.6736,ASSEMBLY_SHELL-1_ALLEL,TI,"shell < TI > < 5 section points > : SNEG, (fraction = -1.0)",133.384
C:/Users/srbb21/AppData/Local/Temp/rx18_gr30001521653382.841.odb,RELAX,Increment    105: Step Time =    1.000,SHELL-1,1744,8.84736,-1.25,15.6736,ASSEMBLY_SHELL-1_ALLEL,TI,"shell < TI > < 5 section points > : SNEG, (fraction = -1.0)",133.304
C:/Users/srbb21/AppData/Local/Temp/rx18_gr30001521653382.841.odb,RELAX,Increment    105: Step Time =    1.000,SHELL-1,1744,8.84736,-1.25,15.6736,ASSEMBLY_SHELL-1_ALLEL,TI,"shell < TI > < 5 section points > : SPOS, (fraction = 1.0)",129.072
C:/Users/srbb21/AppData/Local/Temp/rx18_gr30001521653382.841.odb,RELAX,Increment    105: Step Time =    1.000,SHELL-1,1745,8.84736,-0.75,15.6736,ASSEMBLY_SHELL-1_ALLEL,TI,"shell < TI > < 5 section points > : SPOS, (fraction = 1.0)",129.58
C:/Users/srbb21/AppData/Local/Temp/rx18_gr30001521653382.841.odb,RELAX,Increment    105: Step Time =    1.000,SHELL-1,1745,8.84736,-0.75,15.6736,ASSEMBLY_SHELL-1_ALLEL,TI,"shell < TI > < 5 section points > : SNEG, (fraction = -1.0)",133.24
C:/Users/srbb21/AppData/Local/Temp/rx18_gr30001521653382.841.odb,RELAX,Increment    105: Step Time =    1.000,SHELL-1,1746,8.84736,-0.25,15.6736,ASSEMBLY_SHELL-1_ALLEL,TI,"shell < TI > < 5 section points > : SPOS, (fraction = 1.0)",129.837
C:/Users/srbb21/AppData/Local/Temp/rx18_gr30001521653382.841.odb,RELAX,Increment    105: Step Time =    1.000,SHELL-1,1746,8.84736,-0.25,15.6736,ASSEMBLY_SHELL-1_ALLEL,TI,"shell < TI > < 5 section points > : SNEG, (fraction = -1.0)",133.205
C:/Users/srbb21/AppData/Local/Temp/rx18_gr30001521653382.841.odb,RELAX,Increment    105: Step Time =    1.000,SHELL-1,1747,8.84736,0.25,15.6736,ASSEMBLY_SHELL-1_ALLEL,TI,"shell < TI > < 5 section points > : SPOS, (fraction = 1.0)",129.837
C:/Users/srbb21/AppData/Local/Temp/rx18_gr30001521653382.841.odb,RELAX,Increment    105: Step Time =    1.000,SHELL-1,1747,8.84736,0.25,15.6736,ASSEMBLY_SHELL-1_ALLEL,TI,"shell < TI > < 5 section points > : SNEG, (fraction = -1.0)",133.205
C:/Users/srbb21/AppData/Local/Temp/rx18_gr30001521653382.841.odb,RELAX,Increment    105: Step Time =    1.000,SHELL-1,1748,8.84736,0.75,15.6736,ASSEMBLY_SHELL-1_ALLEL,TI,"shell < TI > < 5 section points > : SNEG, (fraction = -1.0)",133.24
C:/Users/srbb21/AppData/Local/Temp/rx18_gr30001521653382.841.odb,RELAX,Increment    105: Step Time =    1.000,SHELL-1,1748,8.84736,0.75,15.6736,ASSEMBLY_SHELL-1_ALLEL,TI,"shell < TI > < 5 section points > : SPOS, (fraction = 1.0)",129.58
C:/Users/srbb21/AppData/Local/Temp/rx18_gr30001521653382.841.odb,RELAX,Increment    105: Step Time =    1.000,SHELL-1,1749,8.84736,1.25,15.6736,ASSEMBLY_SHELL-1_ALLEL,TI,"shell < TI > < 5 section points > : SPOS, (fraction = 1.0)",129.072
C:/Users/srbb21/AppData/Local/Temp/rx18_gr30001521653382.841.odb,RELAX,Increment    105: Step Time =    1.000,SHELL-1,1749,8.84736,1.25,15.6736,ASSEMBLY_SHELL-1_ALLEL,TI,"shell < TI > < 5 section points > : SNEG, (fraction = -1.0)",133.304
C:/Users/srbb21/AppData/Local/Temp/rx18_gr30001521653382.841.odb,RELAX,Increment    105: Step Time =    1.000,SHELL-1,1750,8.84736,1.75,15.6736,ASSEMBLY_SHELL-1_ALLEL,TI,"shell < TI > < 5 section points > : SPOS, (fraction = 1.0)",128.33
C:/Users/srbb21/AppData/Local/Temp/rx18_gr30001521653382.841.odb,RELAX,Increment    105: Step Time =    1.000,SHELL-1,1750,8.84736,1.75,15.6736,ASSEMBLY_SHELL-1_ALLEL,TI,"shell < TI > < 5 section points > : SNEG, (fraction = -1.0)",133.384
C:/Users/srbb21/AppData/Local/Temp/rx18_gr30001521653382.841.odb,RELAX,Increment    105: Step Time =    1.000,SHELL-1,1751,8.84736,2.25,15.6736,ASSEMBLY_SHELL-1_ALLEL,TI,"shell < TI > < 5 section points > : SPOS, (fraction = 1.0)",127.381
C:/Users/srbb21/AppData/Local/Temp/rx18_gr30001521653382.841.odb,RELAX,Increment    105: Step Time =    1.000,SHELL-1,1751,8.84736,2.25,15.6736,ASSEMBLY_SHELL-1_ALLEL,TI,"shell < TI > < 5 section points > : SNEG, (fraction = -1.0)",133.456
C:/Users/srbb21/AppData/Local/Temp/rx18_gr30001521653382.841.odb,RELAX,Increment    105: Step Time =    1.000,SHELL-1,1752,8.84736,2.75,15.6736,ASSEMBLY_SHELL-1_ALLEL,TI,"shell < TI > < 5 section points > : SNEG, (fraction = -1.0)",133.488
C:/Users/srbb21/AppData/Local/Temp/rx18_gr30001521653382.841.odb,RELAX,Increment    105: Step Time =    1.000,SHELL-1,1752,8.84736,2.75,15.6736,ASSEMBLY_SHELL-1_ALLEL,TI,"shell < TI > < 5 section points > : SPOS, (fraction = 1.0)",126.261
C:/Users/srbb21/AppData/Local/Temp/rx18_gr30001521653382.841.odb,RELAX,Increment    105: Step Time =    1.000,SHELL-1,1753,8.84736,3.25,15.6736,ASSEMBLY_SHELL-1_ALLEL,TI,"shell < TI > < 5 section points > : SPOS, (fraction = 1.0)",125.025
C:/Users/srbb21/AppData/Local/Temp/rx18_gr30001521653382.841.odb,RELAX,Increment    105: Step Time =    1.000,SHELL-1,1753,8.84736,3.25,15.6736,ASSEMBLY_SHELL-1_ALLEL,TI,"shell < TI > < 5 section points > : SNEG, (fraction = -1.0)",133.429
C:/Users/srbb21/AppData/Local/Temp/rx18_gr30001521653382.841.odb,RELAX,Increment    105: Step Time =    1.000,SHELL-1,1754,8.84736,3.75,15.6736,ASSEMBLY_SHELL-1_ALLEL,TI,"shell < TI > < 5 section points > : SPOS, (fraction = 1.0)",123.742
C:/Users/srbb21/AppData/Local/Temp/rx18_gr30001521653382.841.odb,RELAX,Increment    105: Step Time =    1.000,SHELL-1,1754,8.84736,3.75,15.6736,ASSEMBLY_SHELL-1_ALLEL,TI,"shell < TI > < 5 section points > : SNEG, (fraction = -1.0)",133.209
C:/Users/srbb21/AppData/Local/Temp/rx18_gr30001521653382.841.odb,RELAX,Increment    105: Step Time =    1.000,SHELL-1,1755,8.84736,4.25,15.6736,ASSEMBLY_SHELL-1_ALLEL,TI,"shell < TI > < 5 section points > : SPOS, (fraction = 1.0)",122.51
C:/Users/srbb21/AppData/Local/Temp/rx18_gr30001521653382.841.odb,RELAX,Increment    105: Step Time =    1.000,SHELL-1,1755,8.84736,4.25,15.6736,ASSEMBLY_SHELL-1_ALLEL,TI,"shell < TI > < 5 section points > : SNEG, (fraction = -1.0)",132.733
C:/Users/srbb21/AppData/Local/Temp/rx18_gr30001521653382.841.odb,RELAX,Increment    105: Step Time =    1.000,SHELL-1,1756,8.84736,4.75,15.6736,ASSEMBLY_SHELL-1_ALLEL,TI,"shell < TI > < 5 section points > : SNEG, (fraction = -1.0)",131.873
C:/Users/srbb21/AppData/Local/Temp/rx18_gr30001521653382.841.odb,RELAX,Increment    105: Step Time =    1.000,SHELL-1,1756,8.84736,4.75,15.6736,ASSEMBLY_SHELL-1_ALLEL,TI,"shell < TI > < 5 section points > : SPOS, (fraction = 1.0)",121.454
C:/Users/srbb21/AppData/Local/Temp/rx18_gr30001521653382.841.odb,RELAX,Increment    105: Step Time =    1.000,SHELL-1,1757,8.84736,5.25,15.6736,ASSEMBLY_SHELL-1_ALLEL,TI,"shell < TI > < 5 section points > : SPOS, (fraction = 1.0)",120.741
C:/Users/srbb21/AppData/Local/Temp/rx18_gr30001521653382.841.odb,RELAX,Increment    105: Step Time =    1.000,SHELL-1,1757,8.84736,5.25,15.6736,ASSEMBLY_SHELL-1_ALLEL,TI,"shell < TI > < 5 section points > : SNEG, (fraction = -1.0)",130.469
C:/Users/srbb21/AppData/Local/Temp/rx18_gr30001521653382.841.odb,RELAX,Increment    105: Step Time =    1.000,SHELL-1,1758,8.84736,5.75,15.6736,ASSEMBLY_SHELL-1_ALLEL,TI,"shell < TI > < 5 section points > : SPOS, (fraction = 1.0)",120.584
C:/Users/srbb21/AppData/Local/Temp/rx18_gr30001521653382.841.odb,RELAX,Increment    105: Step Time =    1.000,SHELL-1,1758,8.84736,5.75,15.6736,ASSEMBLY_SHELL-1_ALLEL,TI,"shell < TI > < 5 section points > : SNEG, (fraction = -1.0)",128.329
C:/Users/srbb21/AppData/Local/Temp/rx18_gr30001521653382.841.odb,RELAX,Increment    105: Step Time =    1.000,SHELL-1,1759,8.84736,6.25,15.6736,ASSEMBLY_SHELL-1_ALLEL,TI,"shell < TI > < 5 section points > : SPOS, (fraction = 1.0)",121.241
C:/Users/srbb21/AppData/Local/Temp/rx18_gr30001521653382.841.odb,RELAX,Increment    105: Step Time =    1.000,SHELL-1,1759,8.84736,6.25,15.6736,ASSEMBLY_SHELL-1_ALLEL,TI,"shell < TI > < 5 section points > : SNEG, (fraction = -1.0)",125.238
C:/Users/srbb21/AppData/Local/Temp/rx18_gr30001521653382.841.odb,RELAX,Increment    105: Step Time =    1.000,SHELL-1,1760,8.84736,6.75,15.6736,ASSEMBLY_SHELL-1_ALLEL,TI,"shell < TI > < 5 section points > : SPOS, (fraction = 1.0)",123.001
C:/Users/srbb21/AppData/Local/Temp/rx18_gr30001521653382.841.odb,RELAX,Increment    105: Step Time =    1.000,SHELL-1,1760,8.84736,6.75,15.6736,ASSEMBLY_SHELL-1_ALLEL,TI,"shell < TI > < 5 section points > : SNEG, (fraction = -1.0)",120.977
C:/Users/srbb21/AppData/Local/Temp/rx18_gr30001521653382.841.odb,RELAX,Increment    105: Step Time =    1.000,SHELL-1,1761,8.84736,7.25,15.6736,ASSEMBLY_SHELL-1_ALLEL,TI,"shell < TI > < 5 section points > : SNEG, (fraction = -1.0)",115.37
C:/Users/srbb21/AppData/Local/Temp/rx18_gr30001521653382.841.odb,RELAX,Increment    105: Step Time =    1.000,SHELL-1,1761,8.84736,7.25,15.6736,ASSEMBLY_SHELL-1_ALLEL,TI,"shell < TI > < 5 section points > : SPOS, (fraction = 1.0)",126.136
C:/Users/srbb21/AppData/Local/Temp/rx18_gr30001521653382.841.odb,RELAX,Increment    105: Step Time =    1.000,SHELL-1,1762,8.84736,7.75,15.6736,ASSEMBLY_SHELL-1_ALLEL,TI,"shell < TI > < 5 section points > : SPOS, (fraction = 1.0)",130.839
C:/Users/srbb21/AppData/Local/Temp/rx18_gr30001521653382.841.odb,RELAX,Increment    105: Step Time =    1.000,SHELL-1,1762,8.84736,7.75,15.6736,ASSEMBLY_SHELL-1_ALLEL,TI,"shell < TI > < 5 section points > : SNEG, (fraction = -1.0)",108.31
C:/Users/srbb21/AppData/Local/Temp/rx18_gr30001521653382.841.odb,RELAX,Increment    105: Step Time =    1.000,SHELL-1,1763,8.84736,8.25,15.6736,ASSEMBLY_SHELL-1_ALLEL,TI,"shell < TI > < 5 section points > : SPOS, (fraction = 1.0)",137.12
C:/Users/srbb21/AppData/Local/Temp/rx18_gr30001521653382.841.odb,RELAX,Increment    105: Step Time =    1.000,SHELL-1,1763,8.84736,8.25,15.6736,ASSEMBLY_SHELL-1_ALLEL,TI,"shell < TI > < 5 section points > : SNEG, (fraction = -1.0)",99.9025
C:/Users/srbb21/AppData/Local/Temp/rx18_gr30001521653382.841.odb,RELAX,Increment    105: Step Time =    1.000,SHELL-1,1764,8.84736,8.75,15.6736,ASSEMBLY_SHELL-1_ALLEL,TI,"shell < TI > < 5 section points > : SPOS, (fraction = 1.0)",144.739
C:/Users/srbb21/AppData/Local/Temp/rx18_gr30001521653382.841.odb,RELAX,Increment    105: Step Time =    1.000,SHELL-1,1764,8.84736,8.75,15.6736,ASSEMBLY_SHELL-1_ALLEL,TI,"shell < TI > < 5 section points > : SNEG, (fraction = -1.0)",90.4838
C:/Users/srbb21/AppData/Local/Temp/rx18_gr30001521653382.841.odb,RELAX,Increment    105: Step Time =    1.000,SHELL-1,1765,9.27927,-8.75,15.4218,ASSEMBLY_SHELL-1_ALLEL,TI,"shell < TI > < 5 section points > : SNEG, (fraction = -1.0)",86.4459
C:/Users/srbb21/AppData/Local/Temp/rx18_gr30001521653382.841.odb,RELAX,Increment    105: Step Time =    1.000,SHELL-1,1765,9.27927,-8.75,15.4218,ASSEMBLY_SHELL-1_ALLEL,TI,"shell < TI > < 5 section points > : SPOS, (fraction = 1.0)",144.911
C:/Users/srbb21/AppData/Local/Temp/rx18_gr30001521653382.841.odb,RELAX,Increment    105: Step Time =    1.000,SHELL-1,1766,9.27927,-8.25,15.4218,ASSEMBLY_SHELL-1_ALLEL,TI,"shell < TI > < 5 section points > : SPOS, (fraction = 1.0)",135.921
C:/Users/srbb21/AppData/Local/Temp/rx18_gr30001521653382.841.odb,RELAX,Increment    105: Step Time =    1.000,SHELL-1,1766,9.27927,-8.25,15.4218,ASSEMBLY_SHELL-1_ALLEL,TI,"shell < TI > < 5 section points > : SNEG, (fraction = -1.0)",97.3439
C:/Users/srbb21/AppData/Local/Temp/rx18_gr30001521653382.841.odb,RELAX,Increment    105: Step Time =    1.000,SHELL-1,1767,9.27927,-7.75,15.4218,ASSEMBLY_SHELL-1_ALLEL,TI,"shell < TI > < 5 section points > : SPOS, (fraction = 1.0)",128.9
C:/Users/srbb21/AppData/Local/Temp/rx18_gr30001521653382.841.odb,RELAX,Increment    105: Step Time =    1.000,SHELL-1,1767,9.27927,-7.75,15.4218,ASSEMBLY_SHELL-1_ALLEL,TI,"shell < TI > < 5 section points > : SNEG, (fraction = -1.0)",106.725
C:/Users/srbb21/AppData/Local/Temp/rx18_gr30001521653382.841.odb,RELAX,Increment    105: Step Time =    1.000,SHELL-1,1768,9.27927,-7.25,15.4218,ASSEMBLY_SHELL-1_ALLEL,TI,"shell < TI > < 5 section points > : SPOS, (fraction = 1.0)",124.022
C:/Users/srbb21/AppData/Local/Temp/rx18_gr30001521653382.841.odb,RELAX,Increment    105: Step Time =    1.000,SHELL-1,1768,9.27927,-7.25,15.4218,ASSEMBLY_SHELL-1_ALLEL,TI,"shell < TI > < 5 section points > : SNEG, (fraction = -1.0)",114.322
C:/Users/srbb21/AppData/Local/Temp/rx18_gr30001521653382.841.odb,RELAX,Increment    105: Step Time =    1.000,SHELL-1,1769,9.27927,-6.75,15.4218,ASSEMBLY_SHELL-1_ALLEL,TI,"shell < TI > < 5 section points > : SNEG, (fraction = -1.0)",120.148
C:/Users/srbb21/AppData/Local/Temp/rx18_gr30001521653382.841.odb,RELAX,Increment    105: Step Time =    1.000,SHELL-1,1769,9.27927,-6.75,15.4218,ASSEMBLY_SHELL-1_ALLEL,TI,"shell < TI > < 5 section points > : SPOS, (fraction = 1.0)",121.117
C:/Users/srbb21/AppData/Local/Temp/rx18_gr30001521653382.841.odb,RELAX,Increment    105: Step Time =    1.000,SHELL-1,1770,9.27927,-6.25,15.4218,ASSEMBLY_SHELL-1_ALLEL,TI,"shell < TI > < 5 section points > : SPOS, (fraction = 1.0)",119.837
C:/Users/srbb21/AppData/Local/Temp/rx18_gr30001521653382.841.odb,RELAX,Increment    105: Step Time =    1.000,SHELL-1,1770,9.27927,-6.25,15.4218,ASSEMBLY_SHELL-1_ALLEL,TI,"shell < TI > < 5 section points > : SNEG, (fraction = -1.0)",124.418
C:/Users/srbb21/AppData/Local/Temp/rx18_gr30001521653382.841.odb,RELAX,Increment    105: Step Time =    1.000,SHELL-1,1771,9.27927,-5.75,15.4218,ASSEMBLY_SHELL-1_ALLEL,TI,"shell < TI > < 5 section points > : SPOS, (fraction = 1.0)",119.754
C:/Users/srbb21/AppData/Local/Temp/rx18_gr30001521653382.841.odb,RELAX,Increment    105: Step Time =    1.000,SHELL-1,1771,9.27927,-5.75,15.4218,ASSEMBLY_SHELL-1_ALLEL,TI,"shell < TI > < 5 section points > : SNEG, (fraction = -1.0)",127.41
C:/Users/srbb21/AppData/Local/Temp/rx18_gr30001521653382.841.odb,RELAX,Increment    105: Step Time =    1.000,SHELL-1,1772,9.27927,-5.25,15.4218,ASSEMBLY_SHELL-1_ALLEL,TI,"shell < TI > < 5 section points > : SPOS, (fraction = 1.0)",120.483
C:/Users/srbb21/AppData/Local/Temp/rx18_gr30001521653382.841.odb,RELAX,Increment    105: Step Time =    1.000,SHELL-1,1772,9.27927,-5.25,15.4218,ASSEMBLY_SHELL-1_ALLEL,TI,"shell < TI > < 5 section points > : SNEG, (fraction = -1.0)",129.41
C:/Users/srbb21/AppData/Local/Temp/rx18_gr30001521653382.841.odb,RELAX,Increment    105: Step Time =    1.000,SHELL-1,1773,9.27927,-4.75,15.4218,ASSEMBLY_SHELL-1_ALLEL,TI,"shell < TI > < 5 section points > : SNEG, (fraction = -1.0)",130.677
C:/Users/srbb21/AppData/Local/Temp/rx18_gr30001521653382.841.odb,RELAX,Increment    105: Step Time =    1.000,SHELL-1,1773,9.27927,-4.75,15.4218,ASSEMBLY_SHELL-1_ALLEL,TI,"shell < TI > < 5 section points > : SPOS, (fraction = 1.0)",121.703
C:/Users/srbb21/AppData/Local/Temp/rx18_gr30001521653382.841.odb,RELAX,Increment    105: Step Time =    1.000,SHELL-1,1774,9.27927,-4.25,15.4218,ASSEMBLY_SHELL-1_ALLEL,TI,"shell < TI > < 5 section points > : SPOS, (fraction = 1.0)",123.18
C:/Users/srbb21/AppData/Local/Temp/rx18_gr30001521653382.841.odb,RELAX,Increment    105: Step Time =    1.000,SHELL-1,1774,9.27927,-4.25,15.4218,ASSEMBLY_SHELL-1_ALLEL,TI,"shell < TI > < 5 section points > : SNEG, (fraction = -1.0)",131.429
C:/Users/srbb21/AppData/Local/Temp/rx18_gr30001521653382.841.odb,RELAX,Increment    105: Step Time =    1.000,SHELL-1,1775,9.27927,-3.75,15.4218,ASSEMBLY_SHELL-1_ALLEL,TI,"shell < TI > < 5 section points > : SPOS, (fraction = 1.0)",124.744
C:/Users/srbb21/AppData/Local/Temp/rx18_gr30001521653382.841.odb,RELAX,Increment    105: Step Time =    1.000,SHELL-1,1775,9.27927,-3.75,15.4218,ASSEMBLY_SHELL-1_ALLEL,TI,"shell < TI > < 5 section points > : SNEG, (fraction = -1.0)",131.83
C:/Users/srbb21/AppData/Local/Temp/rx18_gr30001521653382.841.odb,RELAX,Increment    105: Step Time =    1.000,SHELL-1,1776,9.27927,-3.25,15.4218,ASSEMBLY_SHELL-1_ALLEL,TI,"shell < TI > < 5 section points > : SPOS, (fraction = 1.0)",126.276
C:/Users/srbb21/AppData/Local/Temp/rx18_gr30001521653382.841.odb,RELAX,Increment    105: Step Time =    1.000,SHELL-1,1776,9.27927,-3.25,15.4218,ASSEMBLY_SHELL-1_ALLEL,TI,"shell < TI > < 5 section points > : SNEG, (fraction = -1.0)",132.008
C:/Users/srbb21/AppData/Local/Temp/rx18_gr30001521653382.841.odb,RELAX,Increment    105: Step Time =    1.000,SHELL-1,1777,9.27927,-2.75,15.4218,ASSEMBLY_SHELL-1_ALLEL,TI,"shell < TI > < 5 section points > : SPOS, (fraction = 1.0)",127.694
C:/Users/srbb21/AppData/Local/Temp/rx18_gr30001521653382.841.odb,RELAX,Increment    105: Step Time =    1.000,SHELL-1,1777,9.27927,-2.75,15.4218,ASSEMBLY_SHELL-1_ALLEL,TI,"shell < TI > < 5 section points > : SNEG, (fraction = -1.0)",132.049
C:/Users/srbb21/AppData/Local/Temp/rx18_gr30001521653382.841.odb,RELAX,Increment    105: Step Time =    1.000,SHELL-1,1778,9.27927,-2.25,15.4218,ASSEMBLY_SHELL-1_ALLEL,TI,"shell < TI > < 5 section points > : SNEG, (fraction = -1.0)",132.018
C:/Users/srbb21/AppData/Local/Temp/rx18_gr30001521653382.841.odb,RELAX,Increment    105: Step Time =    1.000,SHELL-1,1778,9.27927,-2.25,15.4218,ASSEMBLY_SHELL-1_ALLEL,TI,"shell < TI > < 5 section points > : SPOS, (fraction = 1.0)",128.94
C:/Users/srbb21/AppData/Local/Temp/rx18_gr30001521653382.841.odb,RELAX,Increment    105: Step Time =    1.000,SHELL-1,1779,9.27927,-1.75,15.4218,ASSEMBLY_SHELL-1_ALLEL,TI,"shell < TI > < 5 section points > : SPOS, (fraction = 1.0)",129.976
C:/Users/srbb21/AppData/Local/Temp/rx18_gr30001521653382.841.odb,RELAX,Increment    105: Step Time =    1.000,SHELL-1,1779,9.27927,-1.75,15.4218,ASSEMBLY_SHELL-1_ALLEL,TI,"shell < TI > < 5 section points > : SNEG, (fraction = -1.0)",131.954
C:/Users/srbb21/AppData/Local/Temp/rx18_gr30001521653382.841.odb,RELAX,Increment    105: Step Time =    1.000,SHELL-1,1780,9.27927,-1.25,15.4218,ASSEMBLY_SHELL-1_ALLEL,TI,"shell < TI > < 5 section points > : SPOS, (fraction = 1.0)",130.772
C:/Users/srbb21/AppData/Local/Temp/rx18_gr30001521653382.841.odb,RELAX,Increment    105: Step Time =    1.000,SHELL-1,1780,9.27927,-1.25,15.4218,ASSEMBLY_SHELL-1_ALLEL,TI,"shell < TI > < 5 section points > : SNEG, (fraction = -1.0)",131.886
C:/Users/srbb21/AppData/Local/Temp/rx18_gr30001521653382.841.odb,RELAX,Increment    105: Step Time =    1.000,SHELL-1,1781,9.27927,-0.75,15.4218,ASSEMBLY_SHELL-1_ALLEL,TI,"shell < TI > < 5 section points > : SPOS, (fraction = 1.0)",131.312
C:/Users/srbb21/AppData/Local/Temp/rx18_gr30001521653382.841.odb,RELAX,Increment    105: Step Time =    1.000,SHELL-1,1781,9.27927,-0.75,15.4218,ASSEMBLY_SHELL-1_ALLEL,TI,"shell < TI > < 5 section points > : SNEG, (fraction = -1.0)",131.832
C:/Users/srbb21/AppData/Local/Temp/rx18_gr30001521653382.841.odb,RELAX,Increment    105: Step Time =    1.000,SHELL-1,1782,9.27927,-0.25,15.4218,ASSEMBLY_SHELL-1_ALLEL,TI,"shell < TI > < 5 section points > : SNEG, (fraction = -1.0)",131.802
C:/Users/srbb21/AppData/Local/Temp/rx18_gr30001521653382.841.odb,RELAX,Increment    105: Step Time =    1.000,SHELL-1,1782,9.27927,-0.25,15.4218,ASSEMBLY_SHELL-1_ALLEL,TI,"shell < TI > < 5 section points > : SPOS, (fraction = 1.0)",131.585
C:/Users/srbb21/AppData/Local/Temp/rx18_gr30001521653382.841.odb,RELAX,Increment    105: Step Time =    1.000,SHELL-1,1783,9.27927,0.25,15.4218,ASSEMBLY_SHELL-1_ALLEL,TI,"shell < TI > < 5 section points > : SPOS, (fraction = 1.0)",131.585
C:/Users/srbb21/AppData/Local/Temp/rx18_gr30001521653382.841.odb,RELAX,Increment    105: Step Time =    1.000,SHELL-1,1783,9.27927,0.25,15.4218,ASSEMBLY_SHELL-1_ALLEL,TI,"shell < TI > < 5 section points > : SNEG, (fraction = -1.0)",131.802
C:/Users/srbb21/AppData/Local/Temp/rx18_gr30001521653382.841.odb,RELAX,Increment    105: Step Time =    1.000,SHELL-1,1784,9.27927,0.75,15.4218,ASSEMBLY_SHELL-1_ALLEL,TI,"shell < TI > < 5 section points > : SPOS, (fraction = 1.0)",131.312
C:/Users/srbb21/AppData/Local/Temp/rx18_gr30001521653382.841.odb,RELAX,Increment    105: Step Time =    1.000,SHELL-1,1784,9.27927,0.75,15.4218,ASSEMBLY_SHELL-1_ALLEL,TI,"shell < TI > < 5 section points > : SNEG, (fraction = -1.0)",131.832
C:/Users/srbb21/AppData/Local/Temp/rx18_gr30001521653382.841.odb,RELAX,Increment    105: Step Time =    1.000,SHELL-1,1785,9.27927,1.25,15.4218,ASSEMBLY_SHELL-1_ALLEL,TI,"shell < TI > < 5 section points > : SPOS, (fraction = 1.0)",130.772
C:/Users/srbb21/AppData/Local/Temp/rx18_gr30001521653382.841.odb,RELAX,Increment    105: Step Time =    1.000,SHELL-1,1785,9.27927,1.25,15.4218,ASSEMBLY_SHELL-1_ALLEL,TI,"shell < TI > < 5 section points > : SNEG, (fraction = -1.0)",131.886
C:/Users/srbb21/AppData/Local/Temp/rx18_gr30001521653382.841.odb,RELAX,Increment    105: Step Time =    1.000,SHELL-1,1786,9.27927,1.75,15.4218,ASSEMBLY_SHELL-1_ALLEL,TI,"shell < TI > < 5 section points > : SNEG, (fraction = -1.0)",131.954
C:/Users/srbb21/AppData/Local/Temp/rx18_gr30001521653382.841.odb,RELAX,Increment    105: Step Time =    1.000,SHELL-1,1786,9.27927,1.75,15.4218,ASSEMBLY_SHELL-1_ALLEL,TI,"shell < TI > < 5 section points > : SPOS, (fraction = 1.0)",129.976
C:/Users/srbb21/AppData/Local/Temp/rx18_gr30001521653382.841.odb,RELAX,Increment    105: Step Time =    1.000,SHELL-1,1787,9.27927,2.25,15.4218,ASSEMBLY_SHELL-1_ALLEL,TI,"shell < TI > < 5 section points > : SPOS, (fraction = 1.0)",128.94
C:/Users/srbb21/AppData/Local/Temp/rx18_gr30001521653382.841.odb,RELAX,Increment    105: Step Time =    1.000,SHELL-1,1787,9.27927,2.25,15.4218,ASSEMBLY_SHELL-1_ALLEL,TI,"shell < TI > < 5 section points > : SNEG, (fraction = -1.0)",132.018
C:/Users/srbb21/AppData/Local/Temp/rx18_gr30001521653382.841.odb,RELAX,Increment    105: Step Time =    1.000,SHELL-1,1788,9.27927,2.75,15.4218,ASSEMBLY_SHELL-1_ALLEL,TI,"shell < TI > < 5 section points > : SPOS, (fraction = 1.0)",127.694
C:/Users/srbb21/AppData/Local/Temp/rx18_gr30001521653382.841.odb,RELAX,Increment    105: Step Time =    1.000,SHELL-1,1788,9.27927,2.75,15.4218,ASSEMBLY_SHELL-1_ALLEL,TI,"shell < TI > < 5 section points > : SNEG, (fraction = -1.0)",132.049
C:/Users/srbb21/AppData/Local/Temp/rx18_gr30001521653382.841.odb,RELAX,Increment    105: Step Time =    1.000,SHELL-1,1789,9.27927,3.25,15.4218,ASSEMBLY_SHELL-1_ALLEL,TI,"shell < TI > < 5 section points > : SPOS, (fraction = 1.0)",126.276
C:/Users/srbb21/AppData/Local/Temp/rx18_gr30001521653382.841.odb,RELAX,Increment    105: Step Time =    1.000,SHELL-1,1789,9.27927,3.25,15.4218,ASSEMBLY_SHELL-1_ALLEL,TI,"shell < TI > < 5 section points > : SNEG, (fraction = -1.0)",132.008
C:/Users/srbb21/AppData/Local/Temp/rx18_gr30001521653382.841.odb,RELAX,Increment    105: Step Time =    1.000,SHELL-1,1790,9.27927,3.75,15.4218,ASSEMBLY_SHELL-1_ALLEL,TI,"shell < TI > < 5 section points > : SNEG, (fraction = -1.0)",131.83
C:/Users/srbb21/AppData/Local/Temp/rx18_gr30001521653382.841.odb,RELAX,Increment    105: Step Time =    1.000,SHELL-1,1790,9.27927,3.75,15.4218,ASSEMBLY_SHELL-1_ALLEL,TI,"shell < TI > < 5 section points > : SPOS, (fraction = 1.0)",124.744
C:/Users/srbb21/AppData/Local/Temp/rx18_gr30001521653382.841.odb,RELAX,Increment    105: Step Time =    1.000,SHELL-1,1791,9.27927,4.25,15.4218,ASSEMBLY_SHELL-1_ALLEL,TI,"shell < TI > < 5 section points > : SPOS, (fraction = 1.0)",123.18
C:/Users/srbb21/AppData/Local/Temp/rx18_gr30001521653382.841.odb,RELAX,Increment    105: Step Time =    1.000,SHELL-1,1791,9.27927,4.25,15.4218,ASSEMBLY_SHELL-1_ALLEL,TI,"shell < TI > < 5 section points > : SNEG, (fraction = -1.0)",131.429
C:/Users/srbb21/AppData/Local/Temp/rx18_gr30001521653382.841.odb,RELAX,Increment    105: Step Time =    1.000,SHELL-1,1792,9.27927,4.75,15.4218,ASSEMBLY_SHELL-1_ALLEL,TI,"shell < TI > < 5 section points > : SPOS, (fraction = 1.0)",121.703
C:/Users/srbb21/AppData/Local/Temp/rx18_gr30001521653382.841.odb,RELAX,Increment    105: Step Time =    1.000,SHELL-1,1792,9.27927,4.75,15.4218,ASSEMBLY_SHELL-1_ALLEL,TI,"shell < TI > < 5 section points > : SNEG, (fraction = -1.0)",130.677
C:/Users/srbb21/AppData/Local/Temp/rx18_gr30001521653382.841.odb,RELAX,Increment    105: Step Time =    1.000,SHELL-1,1793,9.27927,5.25,15.4218,ASSEMBLY_SHELL-1_ALLEL,TI,"shell < TI > < 5 section points > : SPOS, (fraction = 1.0)",120.483
C:/Users/srbb21/AppData/Local/Temp/rx18_gr30001521653382.841.odb,RELAX,Increment    105: Step Time =    1.000,SHELL-1,1793,9.27927,5.25,15.4218,ASSEMBLY_SHELL-1_ALLEL,TI,"shell < TI > < 5 section points > : SNEG, (fraction = -1.0)",129.41
C:/Users/srbb21/AppData/Local/Temp/rx18_gr30001521653382.841.odb,RELAX,Increment    105: Step Time =    1.000,SHELL-1,1794,9.27927,5.75,15.4218,ASSEMBLY_SHELL-1_ALLEL,TI,"shell < TI > < 5 section points > : SPOS, (fraction = 1.0)",119.754
C:/Users/srbb21/AppData/Local/Temp/rx18_gr30001521653382.841.odb,RELAX,Increment    105: Step Time =    1.000,SHELL-1,1794,9.27927,5.75,15.4218,ASSEMBLY_SHELL-1_ALLEL,TI,"shell < TI > < 5 section points > : SNEG, (fraction = -1.0)",127.41
C:/Users/srbb21/AppData/Local/Temp/rx18_gr30001521653382.841.odb,RELAX,Increment    105: Step Time =    1.000,SHELL-1,1795,9.27927,6.25,15.4218,ASSEMBLY_SHELL-1_ALLEL,TI,"shell < TI > < 5 section points > : SNEG, (fraction = -1.0)",124.418
C:/Users/srbb21/AppData/Local/Temp/rx18_gr30001521653382.841.odb,RELAX,Increment    105: Step Time =    1.000,SHELL-1,1795,9.27927,6.25,15.4218,ASSEMBLY_SHELL-1_ALLEL,TI,"shell < TI > < 5 section points > : SPOS, (fraction = 1.0)",119.837
C:/Users/srbb21/AppData/Local/Temp/rx18_gr30001521653382.841.odb,RELAX,Increment    105: Step Time =    1.000,SHELL-1,1796,9.27927,6.75,15.4218,ASSEMBLY_SHELL-1_ALLEL,TI,"shell < TI > < 5 section points > : SPOS, (fraction = 1.0)",121.117
C:/Users/srbb21/AppData/Local/Temp/rx18_gr30001521653382.841.odb,RELAX,Increment    105: Step Time =    1.000,SHELL-1,1796,9.27927,6.75,15.4218,ASSEMBLY_SHELL-1_ALLEL,TI,"shell < TI > < 5 section points > : SNEG, (fraction = -1.0)",120.148
C:/Users/srbb21/AppData/Local/Temp/rx18_gr30001521653382.841.odb,RELAX,Increment    105: Step Time =    1.000,SHELL-1,1797,9.27927,7.25,15.4218,ASSEMBLY_SHELL-1_ALLEL,TI,"shell < TI > < 5 section points > : SPOS, (fraction = 1.0)",124.022
C:/Users/srbb21/AppData/Local/Temp/rx18_gr30001521653382.841.odb,RELAX,Increment    105: Step Time =    1.000,SHELL-1,1797,9.27927,7.25,15.4218,ASSEMBLY_SHELL-1_ALLEL,TI,"shell < TI > < 5 section points > : SNEG, (fraction = -1.0)",114.322
C:/Users/srbb21/AppData/Local/Temp/rx18_gr30001521653382.841.odb,RELAX,Increment    105: Step Time =    1.000,SHELL-1,1798,9.27927,7.75,15.4218,ASSEMBLY_SHELL-1_ALLEL,TI,"shell < TI > < 5 section points > : SPOS, (fraction = 1.0)",128.9
C:/Users/srbb21/AppData/Local/Temp/rx18_gr30001521653382.841.odb,RELAX,Increment    105: Step Time =    1.000,SHELL-1,1798,9.27927,7.75,15.4218,ASSEMBLY_SHELL-1_ALLEL,TI,"shell < TI > < 5 section points > : SNEG, (fraction = -1.0)",106.725
C:/Users/srbb21/AppData/Local/Temp/rx18_gr30001521653382.841.odb,RELAX,Increment    105: Step Time =    1.000,SHELL-1,1799,9.27927,8.25,15.4218,ASSEMBLY_SHELL-1_ALLEL,TI,"shell < TI > < 5 section points > : SNEG, (fraction = -1.0)",97.3439
C:/Users/srbb21/AppData/Local/Temp/rx18_gr30001521653382.841.odb,RELAX,Increment    105: Step Time =    1.000,SHELL-1,1799,9.27927,8.25,15.4218,ASSEMBLY_SHELL-1_ALLEL,TI,"shell < TI > < 5 section points > : SPOS, (fraction = 1.0)",135.921
C:/Users/srbb21/AppData/Local/Temp/rx18_gr30001521653382.841.odb,RELAX,Increment    105: Step Time =    1.000,SHELL-1,1800,9.27927,8.75,15.4218,ASSEMBLY_SHELL-1_ALLEL,TI,"shell < TI > < 5 section points > : SPOS, (fraction = 1.0)",144.911
C:/Users/srbb21/AppData/Local/Temp/rx18_gr30001521653382.841.odb,RELAX,Increment    105: Step Time =    1.000,SHELL-1,1800,9.27927,8.75,15.4218,ASSEMBLY_SHELL-1_ALLEL,TI,"shell < TI > < 5 section points > : SNEG, (fraction = -1.0)",86.4459
C:/Users/srbb21/AppData/Local/Temp/rx18_gr30001521653382.841.odb,RELAX,Increment    105: Step Time =    1.000,SHELL-1,1801,9.70402,-8.75,15.1581,ASSEMBLY_SHELL-1_ALLEL,TI,"shell < TI > < 5 section points > : SPOS, (fraction = 1.0)",144.314
C:/Users/srbb21/AppData/Local/Temp/rx18_gr30001521653382.841.odb,RELAX,Increment    105: Step Time =    1.000,SHELL-1,1801,9.70402,-8.75,15.1581,ASSEMBLY_SHELL-1_ALLEL,TI,"shell < TI > < 5 section points > : SNEG, (fraction = -1.0)",81.4562
C:/Users/srbb21/AppData/Local/Temp/rx18_gr30001521653382.841.odb,RELAX,Increment    105: Step Time =    1.000,SHELL-1,1802,9.70402,-8.25,15.1581,ASSEMBLY_SHELL-1_ALLEL,TI,"shell < TI > < 5 section points > : SPOS, (fraction = 1.0)",133.688
C:/Users/srbb21/AppData/Local/Temp/rx18_gr30001521653382.841.odb,RELAX,Increment    105: Step Time =    1.000,SHELL-1,1802,9.70402,-8.25,15.1581,ASSEMBLY_SHELL-1_ALLEL,TI,"shell < TI > < 5 section points > : SNEG, (fraction = -1.0)",94.0233
C:/Users/srbb21/AppData/Local/Temp/rx18_gr30001521653382.841.odb,RELAX,Increment    105: Step Time =    1.000,SHELL-1,1803,9.70402,-7.75,15.1581,ASSEMBLY_SHELL-1_ALLEL,TI,"shell < TI > < 5 section points > : SNEG, (fraction = -1.0)",104.359
C:/Users/srbb21/AppData/Local/Temp/rx18_gr30001521653382.841.odb,RELAX,Increment    105: Step Time =    1.000,SHELL-1,1803,9.70402,-7.75,15.1581,ASSEMBLY_SHELL-1_ALLEL,TI,"shell < TI > < 5 section points > : SPOS, (fraction = 1.0)",125.923
C:/Users/srbb21/AppData/Local/Temp/rx18_gr30001521653382.841.odb,RELAX,Increment    105: Step Time =    1.000,SHELL-1,1804,9.70402,-7.25,15.1581,ASSEMBLY_SHELL-1_ALLEL,TI,"shell < TI > < 5 section points > : SPOS, (fraction = 1.0)",121.016
C:/Users/srbb21/AppData/Local/Temp/rx18_gr30001521653382.841.odb,RELAX,Increment    105: Step Time =    1.000,SHELL-1,1804,9.70402,-7.25,15.1581,ASSEMBLY_SHELL-1_ALLEL,TI,"shell < TI > < 5 section points > : SNEG, (fraction = -1.0)",112.381
C:/Users/srbb21/AppData/Local/Temp/rx18_gr30001521653382.841.odb,RELAX,Increment    105: Step Time =    1.000,SHELL-1,1805,9.70402,-6.75,15.1581,ASSEMBLY_SHELL-1_ALLEL,TI,"shell < TI > < 5 section points > : SPOS, (fraction = 1.0)",118.548
C:/Users/srbb21/AppData/Local/Temp/rx18_gr30001521653382.841.odb,RELAX,Increment    105: Step Time =    1.000,SHELL-1,1805,9.70402,-6.75,15.1581,ASSEMBLY_SHELL-1_ALLEL,TI,"shell < TI > < 5 section points > : SNEG, (fraction = -1.0)",118.267
C:/Users/srbb21/AppData/Local/Temp/rx18_gr30001521653382.841.odb,RELAX,Increment    105: Step Time =    1.000,SHELL-1,1806,9.70402,-6.25,15.1581,ASSEMBLY_SHELL-1_ALLEL,TI,"shell < TI > < 5 section points > : SPOS, (fraction = 1.0)",117.92
C:/Users/srbb21/AppData/Local/Temp/rx18_gr30001521653382.841.odb,RELAX,Increment    105: Step Time =    1.000,SHELL-1,1806,9.70402,-6.25,15.1581,ASSEMBLY_SHELL-1_ALLEL,TI,"shell < TI > < 5 section points > : SNEG, (fraction = -1.0)",122.405
C:/Users/srbb21/AppData/Local/Temp/rx18_gr30001521653382.841.odb,RELAX,Increment    105: Step Time =    1.000,SHELL-1,1807,9.70402,-5.75,15.1581,ASSEMBLY_SHELL-1_ALLEL,TI,"shell < TI > < 5 section points > : SNEG, (fraction = -1.0)",125.18
C:/Users/srbb21/AppData/Local/Temp/rx18_gr30001521653382.841.odb,RELAX,Increment    105: Step Time =    1.000,SHELL-1,1807,9.70402,-5.75,15.1581,ASSEMBLY_SHELL-1_ALLEL,TI,"shell < TI > < 5 section points > : SPOS, (fraction = 1.0)",118.523
C:/Users/srbb21/AppData/Local/Temp/rx18_gr30001521653382.841.odb,RELAX,Increment    105: Step Time =    1.000,SHELL-1,1808,9.70402,-5.25,15.1581,ASSEMBLY_SHELL-1_ALLEL,TI,"shell < TI > < 5 section points > : SPOS, (fraction = 1.0)",119.861
C:/Users/srbb21/AppData/Local/Temp/rx18_gr30001521653382.841.odb,RELAX,Increment    105: Step Time =    1.000,SHELL-1,1808,9.70402,-5.25,15.1581,ASSEMBLY_SHELL-1_ALLEL,TI,"shell < TI > < 5 section points > : SNEG, (fraction = -1.0)",126.961
C:/Users/srbb21/AppData/Local/Temp/rx18_gr30001521653382.841.odb,RELAX,Increment    105: Step Time =    1.000,SHELL-1,1809,9.70402,-4.75,15.1581,ASSEMBLY_SHELL-1_ALLEL,TI,"shell < TI > < 5 section points > : SPOS, (fraction = 1.0)",121.571
C:/Users/srbb21/AppData/Local/Temp/rx18_gr30001521653382.841.odb,RELAX,Increment    105: Step Time =    1.000,SHELL-1,1809,9.70402,-4.75,15.1581,ASSEMBLY_SHELL-1_ALLEL,TI,"shell < TI > < 5 section points > : SNEG, (fraction = -1.0)",128.048
C:/Users/srbb21/AppData/Local/Temp/rx18_gr30001521653382.841.odb,RELAX,Increment    105: Step Time =    1.000,SHELL-1,1810,9.70402,-4.25,15.1581,ASSEMBLY_SHELL-1_ALLEL,TI,"shell < TI > < 5 section points > : SPOS, (fraction = 1.0)",123.413
C:/Users/srbb21/AppData/Local/Temp/rx18_gr30001521653382.841.odb,RELAX,Increment    105: Step Time =    1.000,SHELL-1,1810,9.70402,-4.25,15.1581,ASSEMBLY_SHELL-1_ALLEL,TI,"shell < TI > < 5 section points > : SNEG, (fraction = -1.0)",128.67
C:/Users/srbb21/AppData/Local/Temp/rx18_gr30001521653382.841.odb,RELAX,Increment    105: Step Time =    1.000,SHELL-1,1811,9.70402,-3.75,15.1581,ASSEMBLY_SHELL-1_ALLEL,TI,"shell < TI > < 5 section points > : SPOS, (fraction = 1.0)",125.231
C:/Users/srbb21/AppData/Local/Temp/rx18_gr30001521653382.841.odb,RELAX,Increment    105: Step Time =    1.000,SHELL-1,1811,9.70402,-3.75,15.1581,ASSEMBLY_SHELL-1_ALLEL,TI,"shell < TI > < 5 section points > : SNEG, (fraction = -1.0)",128.995
C:/Users/srbb21/AppData/Local/Temp/rx18_gr30001521653382.841.odb,RELAX,Increment    105: Step Time =    1.000,SHELL-1,1812,9.70402,-3.25,15.1581,ASSEMBLY_SHELL-1_ALLEL,TI,"shell < TI > < 5 section points > : SNEG, (fraction = -1.0)",129.136
C:/Users/srbb21/AppData/Local/Temp/rx18_gr30001521653382.841.odb,RELAX,Increment    105: Step Time =    1.000,SHELL-1,1812,9.70402,-3.25,15.1581,ASSEMBLY_SHELL-1_ALLEL,TI,"shell < TI > < 5 section points > : SPOS, (fraction = 1.0)",126.931
C:/Users/srbb21/AppData/Local/Temp/rx18_gr30001521653382.841.odb,RELAX,Increment    105: Step Time =    1.000,SHELL-1,1813,9.70402,-2.75,15.1581,ASSEMBLY_SHELL-1_ALLEL,TI,"shell < TI > < 5 section points > : SPOS, (fraction = 1.0)",128.451
C:/Users/srbb21/AppData/Local/Temp/rx18_gr30001521653382.841.odb,RELAX,Increment    105: Step Time =    1.000,SHELL-1,1813,9.70402,-2.75,15.1581,ASSEMBLY_SHELL-1_ALLEL,TI,"shell < TI > < 5 section points > : SNEG, (fraction = -1.0)",129.171
C:/Users/srbb21/AppData/Local/Temp/rx18_gr30001521653382.841.odb,RELAX,Increment    105: Step Time =    1.000,SHELL-1,1814,9.70402,-2.25,15.1581,ASSEMBLY_SHELL-1_ALLEL,TI,"shell < TI > < 5 section points > : SPOS, (fraction = 1.0)",129.755
C:/Users/srbb21/AppData/Local/Temp/rx18_gr30001521653382.841.odb,RELAX,Increment    105: Step Time =    1.000,SHELL-1,1814,9.70402,-2.25,15.1581,ASSEMBLY_SHELL-1_ALLEL,TI,"shell < TI > < 5 section points > : SNEG, (fraction = -1.0)",129.148
C:/Users/srbb21/AppData/Local/Temp/rx18_gr30001521653382.841.odb,RELAX,Increment    105: Step Time =    1.000,SHELL-1,1815,9.70402,-1.75,15.1581,ASSEMBLY_SHELL-1_ALLEL,TI,"shell < TI > < 5 section points > : SPOS, (fraction = 1.0)",130.817
C:/Users/srbb21/AppData/Local/Temp/rx18_gr30001521653382.841.odb,RELAX,Increment    105: Step Time =    1.000,SHELL-1,1815,9.70402,-1.75,15.1581,ASSEMBLY_SHELL-1_ALLEL,TI,"shell < TI > < 5 section points > : SNEG, (fraction = -1.0)",129.102
C:/Users/srbb21/AppData/Local/Temp/rx18_gr30001521653382.841.odb,RELAX,Increment    105: Step Time =    1.000,SHELL-1,1816,9.70402,-1.25,15.1581,ASSEMBLY_SHELL-1_ALLEL,TI,"shell < TI > < 5 section points > : SNEG, (fraction = -1.0)",129.051
C:/Users/srbb21/AppData/Local/Temp/rx18_gr30001521653382.841.odb,RELAX,Increment    105: Step Time =    1.000,SHELL-1,1816,9.70402,-1.25,15.1581,ASSEMBLY_SHELL-1_ALLEL,TI,"shell < TI > < 5 section points > : SPOS, (fraction = 1.0)",131.624
C:/Users/srbb21/AppData/Local/Temp/rx18_gr30001521653382.841.odb,RELAX,Increment    105: Step Time =    1.000,SHELL-1,1817,9.70402,-0.75,15.1581,ASSEMBLY_SHELL-1_ALLEL,TI,"shell < TI > < 5 section points > : SPOS, (fraction = 1.0)",132.166
C:/Users/srbb21/AppData/Local/Temp/rx18_gr30001521653382.841.odb,RELAX,Increment    105: Step Time =    1.000,SHELL-1,1817,9.70402,-0.75,15.1581,ASSEMBLY_SHELL-1_ALLEL,TI,"shell < TI > < 5 section points > : SNEG, (fraction = -1.0)",129.011
C:/Users/srbb21/AppData/Local/Temp/rx18_gr30001521653382.841.odb,RELAX,Increment    105: Step Time =    1.000,SHELL-1,1818,9.70402,-0.25,15.1581,ASSEMBLY_SHELL-1_ALLEL,TI,"shell < TI > < 5 section points > : SPOS, (fraction = 1.0)",132.438
C:/Users/srbb21/AppData/Local/Temp/rx18_gr30001521653382.841.odb,RELAX,Increment    105: Step Time =    1.000,SHELL-1,1818,9.70402,-0.25,15.1581,ASSEMBLY_SHELL-1_ALLEL,TI,"shell < TI > < 5 section points > : SNEG, (fraction = -1.0)",128.989
C:/Users/srbb21/AppData/Local/Temp/rx18_gr30001521653382.841.odb,RELAX,Increment    105: Step Time =    1.000,SHELL-1,1819,9.70402,0.25,15.1581,ASSEMBLY_SHELL-1_ALLEL,TI,"shell < TI > < 5 section points > : SPOS, (fraction = 1.0)",132.438
C:/Users/srbb21/AppData/Local/Temp/rx18_gr30001521653382.841.odb,RELAX,Increment    105: Step Time =    1.000,SHELL-1,1819,9.70402,0.25,15.1581,ASSEMBLY_SHELL-1_ALLEL,TI,"shell < TI > < 5 section points > : SNEG, (fraction = -1.0)",128.989
C:/Users/srbb21/AppData/Local/Temp/rx18_gr30001521653382.841.odb,RELAX,Increment    105: Step Time =    1.000,SHELL-1,1820,9.70402,0.75,15.1581,ASSEMBLY_SHELL-1_ALLEL,TI,"shell < TI > < 5 section points > : SNEG, (fraction = -1.0)",129.011
C:/Users/srbb21/AppData/Local/Temp/rx18_gr30001521653382.841.odb,RELAX,Increment    105: Step Time =    1.000,SHELL-1,1820,9.70402,0.75,15.1581,ASSEMBLY_SHELL-1_ALLEL,TI,"shell < TI > < 5 section points > : SPOS, (fraction = 1.0)",132.166
C:/Users/srbb21/AppData/Local/Temp/rx18_gr30001521653382.841.odb,RELAX,Increment    105: Step Time =    1.000,SHELL-1,1821,9.70402,1.25,15.1581,ASSEMBLY_SHELL-1_ALLEL,TI,"shell < TI > < 5 section points > : SPOS, (fraction = 1.0)",131.624
C:/Users/srbb21/AppData/Local/Temp/rx18_gr30001521653382.841.odb,RELAX,Increment    105: Step Time =    1.000,SHELL-1,1821,9.70402,1.25,15.1581,ASSEMBLY_SHELL-1_ALLEL,TI,"shell < TI > < 5 section points > : SNEG, (fraction = -1.0)",129.051
C:/Users/srbb21/AppData/Local/Temp/rx18_gr30001521653382.841.odb,RELAX,Increment    105: Step Time =    1.000,SHELL-1,1822,9.70402,1.75,15.1581,ASSEMBLY_SHELL-1_ALLEL,TI,"shell < TI > < 5 section points > : SPOS, (fraction = 1.0)",130.817
C:/Users/srbb21/AppData/Local/Temp/rx18_gr30001521653382.841.odb,RELAX,Increment    105: Step Time =    1.000,SHELL-1,1822,9.70402,1.75,15.1581,ASSEMBLY_SHELL-1_ALLEL,TI,"shell < TI > < 5 section points > : SNEG, (fraction = -1.0)",129.102
C:/Users/srbb21/AppData/Local/Temp/rx18_gr30001521653382.841.odb,RELAX,Increment    105: Step Time =    1.000,SHELL-1,1823,9.70402,2.25,15.1581,ASSEMBLY_SHELL-1_ALLEL,TI,"shell < TI > < 5 section points > : SPOS, (fraction = 1.0)",129.755
C:/Users/srbb21/AppData/Local/Temp/rx18_gr30001521653382.841.odb,RELAX,Increment    105: Step Time =    1.000,SHELL-1,1823,9.70402,2.25,15.1581,ASSEMBLY_SHELL-1_ALLEL,TI,"shell < TI > < 5 section points > : SNEG, (fraction = -1.0)",129.148
C:/Users/srbb21/AppData/Local/Temp/rx18_gr30001521653382.841.odb,RELAX,Increment    105: Step Time =    1.000,SHELL-1,1824,9.70402,2.75,15.1581,ASSEMBLY_SHELL-1_ALLEL,TI,"shell < TI > < 5 section points > : SNEG, (fraction = -1.0)",129.171
C:/Users/srbb21/AppData/Local/Temp/rx18_gr30001521653382.841.odb,RELAX,Increment    105: Step Time =    1.000,SHELL-1,1824,9.70402,2.75,15.1581,ASSEMBLY_SHELL-1_ALLEL,TI,"shell < TI > < 5 section points > : SPOS, (fraction = 1.0)",128.451
C:/Users/srbb21/AppData/Local/Temp/rx18_gr30001521653382.841.odb,RELAX,Increment    105: Step Time =    1.000,SHELL-1,1825,9.70402,3.25,15.1581,ASSEMBLY_SHELL-1_ALLEL,TI,"shell < TI > < 5 section points > : SPOS, (fraction = 1.0)",126.931
C:/Users/srbb21/AppData/Local/Temp/rx18_gr30001521653382.841.odb,RELAX,Increment    105: Step Time =    1.000,SHELL-1,1825,9.70402,3.25,15.1581,ASSEMBLY_SHELL-1_ALLEL,TI,"shell < TI > < 5 section points > : SNEG, (fraction = -1.0)",129.136
C:/Users/srbb21/AppData/Local/Temp/rx18_gr30001521653382.841.odb,RELAX,Increment    105: Step Time =    1.000,SHELL-1,1826,9.70402,3.75,15.1581,ASSEMBLY_SHELL-1_ALLEL,TI,"shell < TI > < 5 section points > : SPOS, (fraction = 1.0)",125.231
C:/Users/srbb21/AppData/Local/Temp/rx18_gr30001521653382.841.odb,RELAX,Increment    105: Step Time =    1.000,SHELL-1,1826,9.70402,3.75,15.1581,ASSEMBLY_SHELL-1_ALLEL,TI,"shell < TI > < 5 section points > : SNEG, (fraction = -1.0)",128.995
C:/Users/srbb21/AppData/Local/Temp/rx18_gr30001521653382.841.odb,RELAX,Increment    105: Step Time =    1.000,SHELL-1,1827,9.70402,4.25,15.1581,ASSEMBLY_SHELL-1_ALLEL,TI,"shell < TI > < 5 section points > : SPOS, (fraction = 1.0)",123.413
C:/Users/srbb21/AppData/Local/Temp/rx18_gr30001521653382.841.odb,RELAX,Increment    105: Step Time =    1.000,SHELL-1,1827,9.70402,4.25,15.1581,ASSEMBLY_SHELL-1_ALLEL,TI,"shell < TI > < 5 section points > : SNEG, (fraction = -1.0)",128.67
C:/Users/srbb21/AppData/Local/Temp/rx18_gr30001521653382.841.odb,RELAX,Increment    105: Step Time =    1.000,SHELL-1,1828,9.70402,4.75,15.1581,ASSEMBLY_SHELL-1_ALLEL,TI,"shell < TI > < 5 section points > : SPOS, (fraction = 1.0)",121.571
C:/Users/srbb21/AppData/Local/Temp/rx18_gr30001521653382.841.odb,RELAX,Increment    105: Step Time =    1.000,SHELL-1,1828,9.70402,4.75,15.1581,ASSEMBLY_SHELL-1_ALLEL,TI,"shell < TI > < 5 section points > : SNEG, (fraction = -1.0)",128.048
C:/Users/srbb21/AppData/Local/Temp/rx18_gr30001521653382.841.odb,RELAX,Increment    105: Step Time =    1.000,SHELL-1,1829,9.70402,5.25,15.1581,ASSEMBLY_SHELL-1_ALLEL,TI,"shell < TI > < 5 section points > : SNEG, (fraction = -1.0)",126.961
C:/Users/srbb21/AppData/Local/Temp/rx18_gr30001521653382.841.odb,RELAX,Increment    105: Step Time =    1.000,SHELL-1,1829,9.70402,5.25,15.1581,ASSEMBLY_SHELL-1_ALLEL,TI,"shell < TI > < 5 section points > : SPOS, (fraction = 1.0)",119.861
C:/Users/srbb21/AppData/Local/Temp/rx18_gr30001521653382.841.odb,RELAX,Increment    105: Step Time =    1.000,SHELL-1,1830,9.70402,5.75,15.1581,ASSEMBLY_SHELL-1_ALLEL,TI,"shell < TI > < 5 section points > : SPOS, (fraction = 1.0)",118.523
C:/Users/srbb21/AppData/Local/Temp/rx18_gr30001521653382.841.odb,RELAX,Increment    105: Step Time =    1.000,SHELL-1,1830,9.70402,5.75,15.1581,ASSEMBLY_SHELL-1_ALLEL,TI,"shell < TI > < 5 section points > : SNEG, (fraction = -1.0)",125.18
C:/Users/srbb21/AppData/Local/Temp/rx18_gr30001521653382.841.odb,RELAX,Increment    105: Step Time =    1.000,SHELL-1,1831,9.70402,6.25,15.1581,ASSEMBLY_SHELL-1_ALLEL,TI,"shell < TI > < 5 section points > : SPOS, (fraction = 1.0)",117.92
C:/Users/srbb21/AppData/Local/Temp/rx18_gr30001521653382.841.odb,RELAX,Increment    105: Step Time =    1.000,SHELL-1,1831,9.70402,6.25,15.1581,ASSEMBLY_SHELL-1_ALLEL,TI,"shell < TI > < 5 section points > : SNEG, (fraction = -1.0)",122.405
C:/Users/srbb21/AppData/Local/Temp/rx18_gr30001521653382.841.odb,RELAX,Increment    105: Step Time =    1.000,SHELL-1,1832,9.70402,6.75,15.1581,ASSEMBLY_SHELL-1_ALLEL,TI,"shell < TI > < 5 section points > : SPOS, (fraction = 1.0)",118.548
C:/Users/srbb21/AppData/Local/Temp/rx18_gr30001521653382.841.odb,RELAX,Increment    105: Step Time =    1.000,SHELL-1,1832,9.70402,6.75,15.1581,ASSEMBLY_SHELL-1_ALLEL,TI,"shell < TI > < 5 section points > : SNEG, (fraction = -1.0)",118.267
C:/Users/srbb21/AppData/Local/Temp/rx18_gr30001521653382.841.odb,RELAX,Increment    105: Step Time =    1.000,SHELL-1,1833,9.70402,7.25,15.1581,ASSEMBLY_SHELL-1_ALLEL,TI,"shell < TI > < 5 section points > : SNEG, (fraction = -1.0)",112.381
C:/Users/srbb21/AppData/Local/Temp/rx18_gr30001521653382.841.odb,RELAX,Increment    105: Step Time =    1.000,SHELL-1,1833,9.70402,7.25,15.1581,ASSEMBLY_SHELL-1_ALLEL,TI,"shell < TI > < 5 section points > : SPOS, (fraction = 1.0)",121.016
C:/Users/srbb21/AppData/Local/Temp/rx18_gr30001521653382.841.odb,RELAX,Increment    105: Step Time =    1.000,SHELL-1,1834,9.70402,7.75,15.1581,ASSEMBLY_SHELL-1_ALLEL,TI,"shell < TI > < 5 section points > : SPOS, (fraction = 1.0)",125.923
C:/Users/srbb21/AppData/Local/Temp/rx18_gr30001521653382.841.odb,RELAX,Increment    105: Step Time =    1.000,SHELL-1,1834,9.70402,7.75,15.1581,ASSEMBLY_SHELL-1_ALLEL,TI,"shell < TI > < 5 section points > : SNEG, (fraction = -1.0)",104.359
C:/Users/srbb21/AppData/Local/Temp/rx18_gr30001521653382.841.odb,RELAX,Increment    105: Step Time =    1.000,SHELL-1,1835,9.70402,8.25,15.1581,ASSEMBLY_SHELL-1_ALLEL,TI,"shell < TI > < 5 section points > : SPOS, (fraction = 1.0)",133.688
C:/Users/srbb21/AppData/Local/Temp/rx18_gr30001521653382.841.odb,RELAX,Increment    105: Step Time =    1.000,SHELL-1,1835,9.70402,8.25,15.1581,ASSEMBLY_SHELL-1_ALLEL,TI,"shell < TI > < 5 section points > : SNEG, (fraction = -1.0)",94.0233
C:/Users/srbb21/AppData/Local/Temp/rx18_gr30001521653382.841.odb,RELAX,Increment    105: Step Time =    1.000,SHELL-1,1836,9.70402,8.75,15.1581,ASSEMBLY_SHELL-1_ALLEL,TI,"shell < TI > < 5 section points > : SPOS, (fraction = 1.0)",144.314
C:/Users/srbb21/AppData/Local/Temp/rx18_gr30001521653382.841.odb,RELAX,Increment    105: Step Time =    1.000,SHELL-1,1836,9.70402,8.75,15.1581,ASSEMBLY_SHELL-1_ALLEL,TI,"shell < TI > < 5 section points > : SNEG, (fraction = -1.0)",81.4562
C:/Users/srbb21/AppData/Local/Temp/rx18_gr30001521653382.841.odb,RELAX,Increment    105: Step Time =    1.000,SHELL-1,1837,10.1213,-8.75,14.8828,ASSEMBLY_SHELL-1_ALLEL,TI,"shell < TI > < 5 section points > : SNEG, (fraction = -1.0)",75.3975
C:/Users/srbb21/AppData/Local/Temp/rx18_gr30001521653382.841.odb,RELAX,Increment    105: Step Time =    1.000,SHELL-1,1837,10.1213,-8.75,14.8828,ASSEMBLY_SHELL-1_ALLEL,TI,"shell < TI > < 5 section points > : SPOS, (fraction = 1.0)",142.449
C:/Users/srbb21/AppData/Local/Temp/rx18_gr30001521653382.841.odb,RELAX,Increment    105: Step Time =    1.000,SHELL-1,1838,10.1213,-8.25,14.8828,ASSEMBLY_SHELL-1_ALLEL,TI,"shell < TI > < 5 section points > : SPOS, (fraction = 1.0)",129.985
C:/Users/srbb21/AppData/Local/Temp/rx18_gr30001521653382.841.odb,RELAX,Increment    105: Step Time =    1.000,SHELL-1,1838,10.1213,-8.25,14.8828,ASSEMBLY_SHELL-1_ALLEL,TI,"shell < TI > < 5 section points > : SNEG, (fraction = -1.0)",89.7261
C:/Users/srbb21/AppData/Local/Temp/rx18_gr30001521653382.841.odb,RELAX,Increment    105: Step Time =    1.000,SHELL-1,1839,10.1213,-7.75,14.8828,ASSEMBLY_SHELL-1_ALLEL,TI,"shell < TI > < 5 section points > : SPOS, (fraction = 1.0)",121.568
C:/Users/srbb21/AppData/Local/Temp/rx18_gr30001521653382.841.odb,RELAX,Increment    105: Step Time =    1.000,SHELL-1,1839,10.1213,-7.75,14.8828,ASSEMBLY_SHELL-1_ALLEL,TI,"shell < TI > < 5 section points > : SNEG, (fraction = -1.0)",100.909
C:/Users/srbb21/AppData/Local/Temp/rx18_gr30001521653382.841.odb,RELAX,Increment    105: Step Time =    1.000,SHELL-1,1840,10.1213,-7.25,14.8828,ASSEMBLY_SHELL-1_ALLEL,TI,"shell < TI > < 5 section points > : SPOS, (fraction = 1.0)",116.892
C:/Users/srbb21/AppData/Local/Temp/rx18_gr30001521653382.841.odb,RELAX,Increment    105: Step Time =    1.000,SHELL-1,1840,10.1213,-7.25,14.8828,ASSEMBLY_SHELL-1_ALLEL,TI,"shell < TI > < 5 section points > : SNEG, (fraction = -1.0)",109.144
C:/Users/srbb21/AppData/Local/Temp/rx18_gr30001521653382.841.odb,RELAX,Increment    105: Step Time =    1.000,SHELL-1,1841,10.1213,-6.75,14.8828,ASSEMBLY_SHELL-1_ALLEL,TI,"shell < TI > < 5 section points > : SNEG, (fraction = -1.0)",114.884
C:/Users/srbb21/AppData/Local/Temp/rx18_gr30001521653382.841.odb,RELAX,Increment    105: Step Time =    1.000,SHELL-1,1841,10.1213,-6.75,14.8828,ASSEMBLY_SHELL-1_ALLEL,TI,"shell < TI > < 5 section points > : SPOS, (fraction = 1.0)",115.115
C:/Users/srbb21/AppData/Local/Temp/rx18_gr30001521653382.841.odb,RELAX,Increment    105: Step Time =    1.000,SHELL-1,1842,10.1213,-6.25,14.8828,ASSEMBLY_SHELL-1_ALLEL,TI,"shell < TI > < 5 section points > : SPOS, (fraction = 1.0)",115.319
C:/Users/srbb21/AppData/Local/Temp/rx18_gr30001521653382.841.odb,RELAX,Increment    105: Step Time =    1.000,SHELL-1,1842,10.1213,-6.25,14.8828,ASSEMBLY_SHELL-1_ALLEL,TI,"shell < TI > < 5 section points > : SNEG, (fraction = -1.0)",118.705
C:/Users/srbb21/AppData/Local/Temp/rx18_gr30001521653382.841.odb,RELAX,Increment    105: Step Time =    1.000,SHELL-1,1843,10.1213,-5.75,14.8828,ASSEMBLY_SHELL-1_ALLEL,TI,"shell < TI > < 5 section points > : SPOS, (fraction = 1.0)",116.669
C:/Users/srbb21/AppData/Local/Temp/rx18_gr30001521653382.841.odb,RELAX,Increment    105: Step Time =    1.000,SHELL-1,1843,10.1213,-5.75,14.8828,ASSEMBLY_SHELL-1_ALLEL,TI,"shell < TI > < 5 section points > : SNEG, (fraction = -1.0)",121.139
C:/Users/srbb21/AppData/Local/Temp/rx18_gr30001521653382.841.odb,RELAX,Increment    105: Step Time =    1.000,SHELL-1,1844,10.1213,-5.25,14.8828,ASSEMBLY_SHELL-1_ALLEL,TI,"shell < TI > < 5 section points > : SPOS, (fraction = 1.0)",118.586
C:/Users/srbb21/AppData/Local/Temp/rx18_gr30001521653382.841.odb,RELAX,Increment    105: Step Time =    1.000,SHELL-1,1844,10.1213,-5.25,14.8828,ASSEMBLY_SHELL-1_ALLEL,TI,"shell < TI > < 5 section points > : SNEG, (fraction = -1.0)",122.626
C:/Users/srbb21/AppData/Local/Temp/rx18_gr30001521653382.841.odb,RELAX,Increment    105: Step Time =    1.000,SHELL-1,1845,10.1213,-4.75,14.8828,ASSEMBLY_SHELL-1_ALLEL,TI,"shell < TI > < 5 section points > : SPOS, (fraction = 1.0)",120.694
C:/Users/srbb21/AppData/Local/Temp/rx18_gr30001521653382.841.odb,RELAX,Increment    105: Step Time =    1.000,SHELL-1,1845,10.1213,-4.75,14.8828,ASSEMBLY_SHELL-1_ALLEL,TI,"shell < TI > < 5 section points > : SNEG, (fraction = -1.0)",123.494
C:/Users/srbb21/AppData/Local/Temp/rx18_gr30001521653382.841.odb,RELAX,Increment    105: Step Time =    1.000,SHELL-1,1846,10.1213,-4.25,14.8828,ASSEMBLY_SHELL-1_ALLEL,TI,"shell < TI > < 5 section points > : SNEG, (fraction = -1.0)",123.978
C:/Users/srbb21/AppData/Local/Temp/rx18_gr30001521653382.841.odb,RELAX,Increment    105: Step Time =    1.000,SHELL-1,1846,10.1213,-4.25,14.8828,ASSEMBLY_SHELL-1_ALLEL,TI,"shell < TI > < 5 section points > : SPOS, (fraction = 1.0)",122.777
C:/Users/srbb21/AppData/Local/Temp/rx18_gr30001521653382.841.odb,RELAX,Increment    105: Step Time =    1.000,SHELL-1,1847,10.1213,-3.75,14.8828,ASSEMBLY_SHELL-1_ALLEL,TI,"shell < TI > < 5 section points > : SPOS, (fraction = 1.0)",124.72
C:/Users/srbb21/AppData/Local/Temp/rx18_gr30001521653382.841.odb,RELAX,Increment    105: Step Time =    1.000,SHELL-1,1847,10.1213,-3.75,14.8828,ASSEMBLY_SHELL-1_ALLEL,TI,"shell < TI > < 5 section points > : SNEG, (fraction = -1.0)",124.227
C:/Users/srbb21/AppData/Local/Temp/rx18_gr30001521653382.841.odb,RELAX,Increment    105: Step Time =    1.000,SHELL-1,1848,10.1213,-3.25,14.8828,ASSEMBLY_SHELL-1_ALLEL,TI,"shell < TI > < 5 section points > : SPOS, (fraction = 1.0)",126.461
C:/Users/srbb21/AppData/Local/Temp/rx18_gr30001521653382.841.odb,RELAX,Increment    105: Step Time =    1.000,SHELL-1,1848,10.1213,-3.25,14.8828,ASSEMBLY_SHELL-1_ALLEL,TI,"shell < TI > < 5 section points > : SNEG, (fraction = -1.0)",124.342
C:/Users/srbb21/AppData/Local/Temp/rx18_gr30001521653382.841.odb,RELAX,Increment    105: Step Time =    1.000,SHELL-1,1849,10.1213,-2.75,14.8828,ASSEMBLY_SHELL-1_ALLEL,TI,"shell < TI > < 5 section points > : SPOS, (fraction = 1.0)",127.974
C:/Users/srbb21/AppData/Local/Temp/rx18_gr30001521653382.841.odb,RELAX,Increment    105: Step Time =    1.000,SHELL-1,1849,10.1213,-2.75,14.8828,ASSEMBLY_SHELL-1_ALLEL,TI,"shell < TI > < 5 section points > : SNEG, (fraction = -1.0)",124.378
C:/Users/srbb21/AppData/Local/Temp/rx18_gr30001521653382.841.odb,RELAX,Increment    105: Step Time =    1.000,SHELL-1,1850,10.1213,-2.25,14.8828,ASSEMBLY_SHELL-1_ALLEL,TI,"shell < TI > < 5 section points > : SNEG, (fraction = -1.0)",124.373
C:/Users/srbb21/AppData/Local/Temp/rx18_gr30001521653382.841.odb,RELAX,Increment    105: Step Time =    1.000,SHELL-1,1850,10.1213,-2.25,14.8828,ASSEMBLY_SHELL-1_ALLEL,TI,"shell < TI > < 5 section points > : SPOS, (fraction = 1.0)",129.24
C:/Users/srbb21/AppData/Local/Temp/rx18_gr30001521653382.841.odb,RELAX,Increment    105: Step Time =    1.000,SHELL-1,1851,10.1213,-1.75,14.8828,ASSEMBLY_SHELL-1_ALLEL,TI,"shell < TI > < 5 section points > : SPOS, (fraction = 1.0)",130.257
C:/Users/srbb21/AppData/Local/Temp/rx18_gr30001521653382.841.odb,RELAX,Increment    105: Step Time =    1.000,SHELL-1,1851,10.1213,-1.75,14.8828,ASSEMBLY_SHELL-1_ALLEL,TI,"shell < TI > < 5 section points > : SNEG, (fraction = -1.0)",124.349
C:/Users/srbb21/AppData/Local/Temp/rx18_gr30001521653382.841.odb,RELAX,Increment    105: Step Time =    1.000,SHELL-1,1852,10.1213,-1.25,14.8828,ASSEMBLY_SHELL-1_ALLEL,TI,"shell < TI > < 5 section points > : SPOS, (fraction = 1.0)",131.019
C:/Users/srbb21/AppData/Local/Temp/rx18_gr30001521653382.841.odb,RELAX,Increment    105: Step Time =    1.000,SHELL-1,1852,10.1213,-1.25,14.8828,ASSEMBLY_SHELL-1_ALLEL,TI,"shell < TI > < 5 section points > : SNEG, (fraction = -1.0)",124.32
C:/Users/srbb21/AppData/Local/Temp/rx18_gr30001521653382.841.odb,RELAX,Increment    105: Step Time =    1.000,SHELL-1,1853,10.1213,-0.75,14.8828,ASSEMBLY_SHELL-1_ALLEL,TI,"shell < TI > < 5 section points > : SPOS, (fraction = 1.0)",131.528
C:/Users/srbb21/AppData/Local/Temp/rx18_gr30001521653382.841.odb,RELAX,Increment    105: Step Time =    1.000,SHELL-1,1853,10.1213,-0.75,14.8828,ASSEMBLY_SHELL-1_ALLEL,TI,"shell < TI > < 5 section points > : SNEG, (fraction = -1.0)",124.295
C:/Users/srbb21/AppData/Local/Temp/rx18_gr30001521653382.841.odb,RELAX,Increment    105: Step Time =    1.000,SHELL-1,1854,10.1213,-0.25,14.8828,ASSEMBLY_SHELL-1_ALLEL,TI,"shell < TI > < 5 section points > : SNEG, (fraction = -1.0)",124.282
C:/Users/srbb21/AppData/Local/Temp/rx18_gr30001521653382.841.odb,RELAX,Increment    105: Step Time =    1.000,SHELL-1,1854,10.1213,-0.25,14.8828,ASSEMBLY_SHELL-1_ALLEL,TI,"shell < TI > < 5 section points > : SPOS, (fraction = 1.0)",131.782
C:/Users/srbb21/AppData/Local/Temp/rx18_gr30001521653382.841.odb,RELAX,Increment    105: Step Time =    1.000,SHELL-1,1855,10.1213,0.25,14.8828,ASSEMBLY_SHELL-1_ALLEL,TI,"shell < TI > < 5 section points > : SPOS, (fraction = 1.0)",131.782
C:/Users/srbb21/AppData/Local/Temp/rx18_gr30001521653382.841.odb,RELAX,Increment    105: Step Time =    1.000,SHELL-1,1855,10.1213,0.25,14.8828,ASSEMBLY_SHELL-1_ALLEL,TI,"shell < TI > < 5 section points > : SNEG, (fraction = -1.0)",124.282
C:/Users/srbb21/AppData/Local/Temp/rx18_gr30001521653382.841.odb,RELAX,Increment    105: Step Time =    1.000,SHELL-1,1856,10.1213,0.75,14.8828,ASSEMBLY_SHELL-1_ALLEL,TI,"shell < TI > < 5 section points > : SPOS, (fraction = 1.0)",131.528
C:/Users/srbb21/AppData/Local/Temp/rx18_gr30001521653382.841.odb,RELAX,Increment    105: Step Time =    1.000,SHELL-1,1856,10.1213,0.75,14.8828,ASSEMBLY_SHELL-1_ALLEL,TI,"shell < TI > < 5 section points > : SNEG, (fraction = -1.0)",124.295
C:/Users/srbb21/AppData/Local/Temp/rx18_gr30001521653382.841.odb,RELAX,Increment    105: Step Time =    1.000,SHELL-1,1857,10.1213,1.25,14.8828,ASSEMBLY_SHELL-1_ALLEL,TI,"shell < TI > < 5 section points > : SPOS, (fraction = 1.0)",131.019
C:/Users/srbb21/AppData/Local/Temp/rx18_gr30001521653382.841.odb,RELAX,Increment    105: Step Time =    1.000,SHELL-1,1857,10.1213,1.25,14.8828,ASSEMBLY_SHELL-1_ALLEL,TI,"shell < TI > < 5 section points > : SNEG, (fraction = -1.0)",124.32
C:/Users/srbb21/AppData/Local/Temp/rx18_gr30001521653382.841.odb,RELAX,Increment    105: Step Time =    1.000,SHELL-1,1858,10.1213,1.75,14.8828,ASSEMBLY_SHELL-1_ALLEL,TI,"shell < TI > < 5 section points > : SNEG, (fraction = -1.0)",124.349
C:/Users/srbb21/AppData/Local/Temp/rx18_gr30001521653382.841.odb,RELAX,Increment    105: Step Time =    1.000,SHELL-1,1858,10.1213,1.75,14.8828,ASSEMBLY_SHELL-1_ALLEL,TI,"shell < TI > < 5 section points > : SPOS, (fraction = 1.0)",130.257
C:/Users/srbb21/AppData/Local/Temp/rx18_gr30001521653382.841.odb,RELAX,Increment    105: Step Time =    1.000,SHELL-1,1859,10.1213,2.25,14.8828,ASSEMBLY_SHELL-1_ALLEL,TI,"shell < TI > < 5 section points > : SPOS, (fraction = 1.0)",129.24
C:/Users/srbb21/AppData/Local/Temp/rx18_gr30001521653382.841.odb,RELAX,Increment    105: Step Time =    1.000,SHELL-1,1859,10.1213,2.25,14.8828,ASSEMBLY_SHELL-1_ALLEL,TI,"shell < TI > < 5 section points > : SNEG, (fraction = -1.0)",124.373
C:/Users/srbb21/AppData/Local/Temp/rx18_gr30001521653382.841.odb,RELAX,Increment    105: Step Time =    1.000,SHELL-1,1860,10.1213,2.75,14.8828,ASSEMBLY_SHELL-1_ALLEL,TI,"shell < TI > < 5 section points > : SPOS, (fraction = 1.0)",127.974
C:/Users/srbb21/AppData/Local/Temp/rx18_gr30001521653382.841.odb,RELAX,Increment    105: Step Time =    1.000,SHELL-1,1860,10.1213,2.75,14.8828,ASSEMBLY_SHELL-1_ALLEL,TI,"shell < TI > < 5 section points > : SNEG, (fraction = -1.0)",124.378
C:/Users/srbb21/AppData/Local/Temp/rx18_gr30001521653382.841.odb,RELAX,Increment    105: Step Time =    1.000,SHELL-1,1861,10.1213,3.25,14.8828,ASSEMBLY_SHELL-1_ALLEL,TI,"shell < TI > < 5 section points > : SPOS, (fraction = 1.0)",126.461
C:/Users/srbb21/AppData/Local/Temp/rx18_gr30001521653382.841.odb,RELAX,Increment    105: Step Time =    1.000,SHELL-1,1861,10.1213,3.25,14.8828,ASSEMBLY_SHELL-1_ALLEL,TI,"shell < TI > < 5 section points > : SNEG, (fraction = -1.0)",124.342
C:/Users/srbb21/AppData/Local/Temp/rx18_gr30001521653382.841.odb,RELAX,Increment    105: Step Time =    1.000,SHELL-1,1862,10.1213,3.75,14.8828,ASSEMBLY_SHELL-1_ALLEL,TI,"shell < TI > < 5 section points > : SPOS, (fraction = 1.0)",124.72
C:/Users/srbb21/AppData/Local/Temp/rx18_gr30001521653382.841.odb,RELAX,Increment    105: Step Time =    1.000,SHELL-1,1862,10.1213,3.75,14.8828,ASSEMBLY_SHELL-1_ALLEL,TI,"shell < TI > < 5 section points > : SNEG, (fraction = -1.0)",124.227
C:/Users/srbb21/AppData/Local/Temp/rx18_gr30001521653382.841.odb,RELAX,Increment    105: Step Time =    1.000,SHELL-1,1863,10.1213,4.25,14.8828,ASSEMBLY_SHELL-1_ALLEL,TI,"shell < TI > < 5 section points > : SNEG, (fraction = -1.0)",123.978
C:/Users/srbb21/AppData/Local/Temp/rx18_gr30001521653382.841.odb,RELAX,Increment    105: Step Time =    1.000,SHELL-1,1863,10.1213,4.25,14.8828,ASSEMBLY_SHELL-1_ALLEL,TI,"shell < TI > < 5 section points > : SPOS, (fraction = 1.0)",122.777
C:/Users/srbb21/AppData/Local/Temp/rx18_gr30001521653382.841.odb,RELAX,Increment    105: Step Time =    1.000,SHELL-1,1864,10.1213,4.75,14.8828,ASSEMBLY_SHELL-1_ALLEL,TI,"shell < TI > < 5 section points > : SPOS, (fraction = 1.0)",120.694
C:/Users/srbb21/AppData/Local/Temp/rx18_gr30001521653382.841.odb,RELAX,Increment    105: Step Time =    1.000,SHELL-1,1864,10.1213,4.75,14.8828,ASSEMBLY_SHELL-1_ALLEL,TI,"shell < TI > < 5 section points > : SNEG, (fraction = -1.0)",123.494
C:/Users/srbb21/AppData/Local/Temp/rx18_gr30001521653382.841.odb,RELAX,Increment    105: Step Time =    1.000,SHELL-1,1865,10.1213,5.25,14.8828,ASSEMBLY_SHELL-1_ALLEL,TI,"shell < TI > < 5 section points > : SPOS, (fraction = 1.0)",118.586
C:/Users/srbb21/AppData/Local/Temp/rx18_gr30001521653382.841.odb,RELAX,Increment    105: Step Time =    1.000,SHELL-1,1865,10.1213,5.25,14.8828,ASSEMBLY_SHELL-1_ALLEL,TI,"shell < TI > < 5 section points > : SNEG, (fraction = -1.0)",122.626
C:/Users/srbb21/AppData/Local/Temp/rx18_gr30001521653382.841.odb,RELAX,Increment    105: Step Time =    1.000,SHELL-1,1866,10.1213,5.75,14.8828,ASSEMBLY_SHELL-1_ALLEL,TI,"shell < TI > < 5 section points > : SPOS, (fraction = 1.0)",116.669
C:/Users/srbb21/AppData/Local/Temp/rx18_gr30001521653382.841.odb,RELAX,Increment    105: Step Time =    1.000,SHELL-1,1866,10.1213,5.75,14.8828,ASSEMBLY_SHELL-1_ALLEL,TI,"shell < TI > < 5 section points > : SNEG, (fraction = -1.0)",121.139
C:/Users/srbb21/AppData/Local/Temp/rx18_gr30001521653382.841.odb,RELAX,Increment    105: Step Time =    1.000,SHELL-1,1867,10.1213,6.25,14.8828,ASSEMBLY_SHELL-1_ALLEL,TI,"shell < TI > < 5 section points > : SNEG, (fraction = -1.0)",118.705
C:/Users/srbb21/AppData/Local/Temp/rx18_gr30001521653382.841.odb,RELAX,Increment    105: Step Time =    1.000,SHELL-1,1867,10.1213,6.25,14.8828,ASSEMBLY_SHELL-1_ALLEL,TI,"shell < TI > < 5 section points > : SPOS, (fraction = 1.0)",115.319
C:/Users/srbb21/AppData/Local/Temp/rx18_gr30001521653382.841.odb,RELAX,Increment    105: Step Time =    1.000,SHELL-1,1868,10.1213,6.75,14.8828,ASSEMBLY_SHELL-1_ALLEL,TI,"shell < TI > < 5 section points > : SPOS, (fraction = 1.0)",115.115
C:/Users/srbb21/AppData/Local/Temp/rx18_gr30001521653382.841.odb,RELAX,Increment    105: Step Time =    1.000,SHELL-1,1868,10.1213,6.75,14.8828,ASSEMBLY_SHELL-1_ALLEL,TI,"shell < TI > < 5 section points > : SNEG, (fraction = -1.0)",114.884
C:/Users/srbb21/AppData/Local/Temp/rx18_gr30001521653382.841.odb,RELAX,Increment    105: Step Time =    1.000,SHELL-1,1869,10.1213,7.25,14.8828,ASSEMBLY_SHELL-1_ALLEL,TI,"shell < TI > < 5 section points > : SPOS, (fraction = 1.0)",116.892
C:/Users/srbb21/AppData/Local/Temp/rx18_gr30001521653382.841.odb,RELAX,Increment    105: Step Time =    1.000,SHELL-1,1869,10.1213,7.25,14.8828,ASSEMBLY_SHELL-1_ALLEL,TI,"shell < TI > < 5 section points > : SNEG, (fraction = -1.0)",109.144
C:/Users/srbb21/AppData/Local/Temp/rx18_gr30001521653382.841.odb,RELAX,Increment    105: Step Time =    1.000,SHELL-1,1870,10.1213,7.75,14.8828,ASSEMBLY_SHELL-1_ALLEL,TI,"shell < TI > < 5 section points > : SPOS, (fraction = 1.0)",121.568
C:/Users/srbb21/AppData/Local/Temp/rx18_gr30001521653382.841.odb,RELAX,Increment    105: Step Time =    1.000,SHELL-1,1870,10.1213,7.75,14.8828,ASSEMBLY_SHELL-1_ALLEL,TI,"shell < TI > < 5 section points > : SNEG, (fraction = -1.0)",100.909
C:/Users/srbb21/AppData/Local/Temp/rx18_gr30001521653382.841.odb,RELAX,Increment    105: Step Time =    1.000,SHELL-1,1871,10.1213,8.25,14.8828,ASSEMBLY_SHELL-1_ALLEL,TI,"shell < TI > < 5 section points > : SNEG, (fraction = -1.0)",89.7261
C:/Users/srbb21/AppData/Local/Temp/rx18_gr30001521653382.841.odb,RELAX,Increment    105: Step Time =    1.000,SHELL-1,1871,10.1213,8.25,14.8828,ASSEMBLY_SHELL-1_ALLEL,TI,"shell < TI > < 5 section points > : SPOS, (fraction = 1.0)",129.985
C:/Users/srbb21/AppData/Local/Temp/rx18_gr30001521653382.841.odb,RELAX,Increment    105: Step Time =    1.000,SHELL-1,1872,10.1213,8.75,14.8828,ASSEMBLY_SHELL-1_ALLEL,TI,"shell < TI > < 5 section points > : SPOS, (fraction = 1.0)",142.449
C:/Users/srbb21/AppData/Local/Temp/rx18_gr30001521653382.841.odb,RELAX,Increment    105: Step Time =    1.000,SHELL-1,1872,10.1213,8.75,14.8828,ASSEMBLY_SHELL-1_ALLEL,TI,"shell < TI > < 5 section points > : SNEG, (fraction = -1.0)",75.3975
C:/Users/srbb21/AppData/Local/Temp/rx18_gr30001521653382.841.odb,RELAX,Increment    105: Step Time =    1.000,SHELL-1,1873,10.5307,-8.75,14.5959,ASSEMBLY_SHELL-1_ALLEL,TI,"shell < TI > < 5 section points > : SPOS, (fraction = 1.0)",138.673
C:/Users/srbb21/AppData/Local/Temp/rx18_gr30001521653382.841.odb,RELAX,Increment    105: Step Time =    1.000,SHELL-1,1873,10.5307,-8.75,14.5959,ASSEMBLY_SHELL-1_ALLEL,TI,"shell < TI > < 5 section points > : SNEG, (fraction = -1.0)",68.1735
C:/Users/srbb21/AppData/Local/Temp/rx18_gr30001521653382.841.odb,RELAX,Increment    105: Step Time =    1.000,SHELL-1,1874,10.5307,-8.25,14.5959,ASSEMBLY_SHELL-1_ALLEL,TI,"shell < TI > < 5 section points > : SPOS, (fraction = 1.0)",124.294
C:/Users/srbb21/AppData/Local/Temp/rx18_gr30001521653382.841.odb,RELAX,Increment    105: Step Time =    1.000,SHELL-1,1874,10.5307,-8.25,14.5959,ASSEMBLY_SHELL-1_ALLEL,TI,"shell < TI > < 5 section points > : SNEG, (fraction = -1.0)",84.2399
C:/Users/srbb21/AppData/Local/Temp/rx18_gr30001521653382.841.odb,RELAX,Increment    105: Step Time =    1.000,SHELL-1,1875,10.5307,-7.75,14.5959,ASSEMBLY_SHELL-1_ALLEL,TI,"shell < TI > < 5 section points > : SNEG, (fraction = -1.0)",96.0208
C:/Users/srbb21/AppData/Local/Temp/rx18_gr30001521653382.841.odb,RELAX,Increment    105: Step Time =    1.000,SHELL-1,1875,10.5307,-7.75,14.5959,ASSEMBLY_SHELL-1_ALLEL,TI,"shell < TI > < 5 section points > : SPOS, (fraction = 1.0)",115.521
C:/Users/srbb21/AppData/Local/Temp/rx18_gr30001521653382.841.odb,RELAX,Increment    105: Step Time =    1.000,SHELL-1,1876,10.5307,-7.25,14.5959,ASSEMBLY_SHELL-1_ALLEL,TI,"shell < TI > < 5 section points > : SPOS, (fraction = 1.0)",111.468
C:/Users/srbb21/AppData/Local/Temp/rx18_gr30001521653382.841.odb,RELAX,Increment    105: Step Time =    1.000,SHELL-1,1876,10.5307,-7.25,14.5959,ASSEMBLY_SHELL-1_ALLEL,TI,"shell < TI > < 5 section points > : SNEG, (fraction = -1.0)",104.182
C:/Users/srbb21/AppData/Local/Temp/rx18_gr30001521653382.841.odb,RELAX,Increment    105: Step Time =    1.000,SHELL-1,1877,10.5307,-6.75,14.5959,ASSEMBLY_SHELL-1_ALLEL,TI,"shell < TI > < 5 section points > : SPOS, (fraction = 1.0)",110.699
C:/Users/srbb21/AppData/Local/Temp/rx18_gr30001521653382.841.odb,RELAX,Increment    105: Step Time =    1.000,SHELL-1,1877,10.5307,-6.75,14.5959,ASSEMBLY_SHELL-1_ALLEL,TI,"shell < TI > < 5 section points > : SNEG, (fraction = -1.0)",109.506
C:/Users/srbb21/AppData/Local/Temp/rx18_gr30001521653382.841.odb,RELAX,Increment    105: Step Time =    1.000,SHELL-1,1878,10.5307,-6.25,14.5959,ASSEMBLY_SHELL-1_ALLEL,TI,"shell < TI > < 5 section points > : SPOS, (fraction = 1.0)",111.858
C:/Users/srbb21/AppData/Local/Temp/rx18_gr30001521653382.841.odb,RELAX,Increment    105: Step Time =    1.000,SHELL-1,1878,10.5307,-6.25,14.5959,ASSEMBLY_SHELL-1_ALLEL,TI,"shell < TI > < 5 section points > : SNEG, (fraction = -1.0)",112.828
C:/Users/srbb21/AppData/Local/Temp/rx18_gr30001521653382.841.odb,RELAX,Increment    105: Step Time =    1.000,SHELL-1,1879,10.5307,-5.75,14.5959,ASSEMBLY_SHELL-1_ALLEL,TI,"shell < TI > < 5 section points > : SNEG, (fraction = -1.0)",114.808
C:/Users/srbb21/AppData/Local/Temp/rx18_gr30001521653382.841.odb,RELAX,Increment    105: Step Time =    1.000,SHELL-1,1879,10.5307,-5.75,14.5959,ASSEMBLY_SHELL-1_ALLEL,TI,"shell < TI > < 5 section points > : SPOS, (fraction = 1.0)",113.927
C:/Users/srbb21/AppData/Local/Temp/rx18_gr30001521653382.841.odb,RELAX,Increment    105: Step Time =    1.000,SHELL-1,1880,10.5307,-5.25,14.5959,ASSEMBLY_SHELL-1_ALLEL,TI,"shell < TI > < 5 section points > : SPOS, (fraction = 1.0)",116.287
C:/Users/srbb21/AppData/Local/Temp/rx18_gr30001521653382.841.odb,RELAX,Increment    105: Step Time =    1.000,SHELL-1,1880,10.5307,-5.25,14.5959,ASSEMBLY_SHELL-1_ALLEL,TI,"shell < TI > < 5 section points > : SNEG, (fraction = -1.0)",115.946
C:/Users/srbb21/AppData/Local/Temp/rx18_gr30001521653382.841.odb,RELAX,Increment    105: Step Time =    1.000,SHELL-1,1881,10.5307,-4.75,14.5959,ASSEMBLY_SHELL-1_ALLEL,TI,"shell < TI > < 5 section points > : SPOS, (fraction = 1.0)",118.602
C:/Users/srbb21/AppData/Local/Temp/rx18_gr30001521653382.841.odb,RELAX,Increment    105: Step Time =    1.000,SHELL-1,1881,10.5307,-4.75,14.5959,ASSEMBLY_SHELL-1_ALLEL,TI,"shell < TI > < 5 section points > : SNEG, (fraction = -1.0)",116.585
C:/Users/srbb21/AppData/Local/Temp/rx18_gr30001521653382.841.odb,RELAX,Increment    105: Step Time =    1.000,SHELL-1,1882,10.5307,-4.25,14.5959,ASSEMBLY_SHELL-1_ALLEL,TI,"shell < TI > < 5 section points > : SPOS, (fraction = 1.0)",120.728
C:/Users/srbb21/AppData/Local/Temp/rx18_gr30001521653382.841.odb,RELAX,Increment    105: Step Time =    1.000,SHELL-1,1882,10.5307,-4.25,14.5959,ASSEMBLY_SHELL-1_ALLEL,TI,"shell < TI > < 5 section points > : SNEG, (fraction = -1.0)",116.933
C:/Users/srbb21/AppData/Local/Temp/rx18_gr30001521653382.841.odb,RELAX,Increment    105: Step Time =    1.000,SHELL-1,1883,10.5307,-3.75,14.5959,ASSEMBLY_SHELL-1_ALLEL,TI,"shell < TI > < 5 section points > : SNEG, (fraction = -1.0)",117.123
C:/Users/srbb21/AppData/Local/Temp/rx18_gr30001521653382.841.odb,RELAX,Increment    105: Step Time =    1.000,SHELL-1,1883,10.5307,-3.75,14.5959,ASSEMBLY_SHELL-1_ALLEL,TI,"shell < TI > < 5 section points > : SPOS, (fraction = 1.0)",122.603
C:/Users/srbb21/AppData/Local/Temp/rx18_gr30001521653382.841.odb,RELAX,Increment    105: Step Time =    1.000,SHELL-1,1884,10.5307,-3.25,14.5959,ASSEMBLY_SHELL-1_ALLEL,TI,"shell < TI > < 5 section points > : SPOS, (fraction = 1.0)",124.221
C:/Users/srbb21/AppData/Local/Temp/rx18_gr30001521653382.841.odb,RELAX,Increment    105: Step Time =    1.000,SHELL-1,1884,10.5307,-3.25,14.5959,ASSEMBLY_SHELL-1_ALLEL,TI,"shell < TI > < 5 section points > : SNEG, (fraction = -1.0)",117.22
C:/Users/srbb21/AppData/Local/Temp/rx18_gr30001521653382.841.odb,RELAX,Increment    105: Step Time =    1.000,SHELL-1,1885,10.5307,-2.75,14.5959,ASSEMBLY_SHELL-1_ALLEL,TI,"shell < TI > < 5 section points > : SPOS, (fraction = 1.0)",125.582
C:/Users/srbb21/AppData/Local/Temp/rx18_gr30001521653382.841.odb,RELAX,Increment    105: Step Time =    1.000,SHELL-1,1885,10.5307,-2.75,14.5959,ASSEMBLY_SHELL-1_ALLEL,TI,"shell < TI > < 5 section points > : SNEG, (fraction = -1.0)",117.268
C:/Users/srbb21/AppData/Local/Temp/rx18_gr30001521653382.841.odb,RELAX,Increment    105: Step Time =    1.000,SHELL-1,1886,10.5307,-2.25,14.5959,ASSEMBLY_SHELL-1_ALLEL,TI,"shell < TI > < 5 section points > : SPOS, (fraction = 1.0)",126.701
C:/Users/srbb21/AppData/Local/Temp/rx18_gr30001521653382.841.odb,RELAX,Increment    105: Step Time =    1.000,SHELL-1,1886,10.5307,-2.25,14.5959,ASSEMBLY_SHELL-1_ALLEL,TI,"shell < TI > < 5 section points > : SNEG, (fraction = -1.0)",117.283
C:/Users/srbb21/AppData/Local/Temp/rx18_gr30001521653382.841.odb,RELAX,Increment    105: Step Time =    1.000,SHELL-1,1887,10.5307,-1.75,14.5959,ASSEMBLY_SHELL-1_ALLEL,TI,"shell < TI > < 5 section points > : SNEG, (fraction = -1.0)",117.283
C:/Users/srbb21/AppData/Local/Temp/rx18_gr30001521653382.841.odb,RELAX,Increment    105: Step Time =    1.000,SHELL-1,1887,10.5307,-1.75,14.5959,ASSEMBLY_SHELL-1_ALLEL,TI,"shell < TI > < 5 section points > : SPOS, (fraction = 1.0)",127.585
C:/Users/srbb21/AppData/Local/Temp/rx18_gr30001521653382.841.odb,RELAX,Increment    105: Step Time =    1.000,SHELL-1,1888,10.5307,-1.25,14.5959,ASSEMBLY_SHELL-1_ALLEL,TI,"shell < TI > < 5 section points > : SPOS, (fraction = 1.0)",128.241
C:/Users/srbb21/AppData/Local/Temp/rx18_gr30001521653382.841.odb,RELAX,Increment    105: Step Time =    1.000,SHELL-1,1888,10.5307,-1.25,14.5959,ASSEMBLY_SHELL-1_ALLEL,TI,"shell < TI > < 5 section points > : SNEG, (fraction = -1.0)",117.274
C:/Users/srbb21/AppData/Local/Temp/rx18_gr30001521653382.841.odb,RELAX,Increment    105: Step Time =    1.000,SHELL-1,1889,10.5307,-0.75,14.5959,ASSEMBLY_SHELL-1_ALLEL,TI,"shell < TI > < 5 section points > : SPOS, (fraction = 1.0)",128.676
C:/Users/srbb21/AppData/Local/Temp/rx18_gr30001521653382.841.odb,RELAX,Increment    105: Step Time =    1.000,SHELL-1,1889,10.5307,-0.75,14.5959,ASSEMBLY_SHELL-1_ALLEL,TI,"shell < TI > < 5 section points > : SNEG, (fraction = -1.0)",117.264
C:/Users/srbb21/AppData/Local/Temp/rx18_gr30001521653382.841.odb,RELAX,Increment    105: Step Time =    1.000,SHELL-1,1890,10.5307,-0.25,14.5959,ASSEMBLY_SHELL-1_ALLEL,TI,"shell < TI > < 5 section points > : SPOS, (fraction = 1.0)",128.892
C:/Users/srbb21/AppData/Local/Temp/rx18_gr30001521653382.841.odb,RELAX,Increment    105: Step Time =    1.000,SHELL-1,1890,10.5307,-0.25,14.5959,ASSEMBLY_SHELL-1_ALLEL,TI,"shell < TI > < 5 section points > : SNEG, (fraction = -1.0)",117.258
C:/Users/srbb21/AppData/Local/Temp/rx18_gr30001521653382.841.odb,RELAX,Increment    105: Step Time =    1.000,SHELL-1,1891,10.5307,0.25,14.5959,ASSEMBLY_SHELL-1_ALLEL,TI,"shell < TI > < 5 section points > : SNEG, (fraction = -1.0)",117.258
C:/Users/srbb21/AppData/Local/Temp/rx18_gr30001521653382.841.odb,RELAX,Increment    105: Step Time =    1.000,SHELL-1,1891,10.5307,0.25,14.5959,ASSEMBLY_SHELL-1_ALLEL,TI,"shell < TI > < 5 section points > : SPOS, (fraction = 1.0)",128.892
C:/Users/srbb21/AppData/Local/Temp/rx18_gr30001521653382.841.odb,RELAX,Increment    105: Step Time =    1.000,SHELL-1,1892,10.5307,0.75,14.5959,ASSEMBLY_SHELL-1_ALLEL,TI,"shell < TI > < 5 section points > : SPOS, (fraction = 1.0)",128.676
C:/Users/srbb21/AppData/Local/Temp/rx18_gr30001521653382.841.odb,RELAX,Increment    105: Step Time =    1.000,SHELL-1,1892,10.5307,0.75,14.5959,ASSEMBLY_SHELL-1_ALLEL,TI,"shell < TI > < 5 section points > : SNEG, (fraction = -1.0)",117.264
C:/Users/srbb21/AppData/Local/Temp/rx18_gr30001521653382.841.odb,RELAX,Increment    105: Step Time =    1.000,SHELL-1,1893,10.5307,1.25,14.5959,ASSEMBLY_SHELL-1_ALLEL,TI,"shell < TI > < 5 section points > : SPOS, (fraction = 1.0)",128.241
C:/Users/srbb21/AppData/Local/Temp/rx18_gr30001521653382.841.odb,RELAX,Increment    105: Step Time =    1.000,SHELL-1,1893,10.5307,1.25,14.5959,ASSEMBLY_SHELL-1_ALLEL,TI,"shell < TI > < 5 section points > : SNEG, (fraction = -1.0)",117.274
C:/Users/srbb21/AppData/Local/Temp/rx18_gr30001521653382.841.odb,RELAX,Increment    105: Step Time =    1.000,SHELL-1,1894,10.5307,1.75,14.5959,ASSEMBLY_SHELL-1_ALLEL,TI,"shell < TI > < 5 section points > : SPOS, (fraction = 1.0)",127.585
C:/Users/srbb21/AppData/Local/Temp/rx18_gr30001521653382.841.odb,RELAX,Increment    105: Step Time =    1.000,SHELL-1,1894,10.5307,1.75,14.5959,ASSEMBLY_SHELL-1_ALLEL,TI,"shell < TI > < 5 section points > : SNEG, (fraction = -1.0)",117.283
C:/Users/srbb21/AppData/Local/Temp/rx18_gr30001521653382.841.odb,RELAX,Increment    105: Step Time =    1.000,SHELL-1,1895,10.5307,2.25,14.5959,ASSEMBLY_SHELL-1_ALLEL,TI,"shell < TI > < 5 section points > : SPOS, (fraction = 1.0)",126.701
C:/Users/srbb21/AppData/Local/Temp/rx18_gr30001521653382.841.odb,RELAX,Increment    105: Step Time =    1.000,SHELL-1,1895,10.5307,2.25,14.5959,ASSEMBLY_SHELL-1_ALLEL,TI,"shell < TI > < 5 section points > : SNEG, (fraction = -1.0)",117.283
C:/Users/srbb21/AppData/Local/Temp/rx18_gr30001521653382.841.odb,RELAX,Increment    105: Step Time =    1.000,SHELL-1,1896,10.5307,2.75,14.5959,ASSEMBLY_SHELL-1_ALLEL,TI,"shell < TI > < 5 section points > : SNEG, (fraction = -1.0)",117.268
C:/Users/srbb21/AppData/Local/Temp/rx18_gr30001521653382.841.odb,RELAX,Increment    105: Step Time =    1.000,SHELL-1,1896,10.5307,2.75,14.5959,ASSEMBLY_SHELL-1_ALLEL,TI,"shell < TI > < 5 section points > : SPOS, (fraction = 1.0)",125.582
C:/Users/srbb21/AppData/Local/Temp/rx18_gr30001521653382.841.odb,RELAX,Increment    105: Step Time =    1.000,SHELL-1,1897,10.5307,3.25,14.5959,ASSEMBLY_SHELL-1_ALLEL,TI,"shell < TI > < 5 section points > : SPOS, (fraction = 1.0)",124.221
C:/Users/srbb21/AppData/Local/Temp/rx18_gr30001521653382.841.odb,RELAX,Increment    105: Step Time =    1.000,SHELL-1,1897,10.5307,3.25,14.5959,ASSEMBLY_SHELL-1_ALLEL,TI,"shell < TI > < 5 section points > : SNEG, (fraction = -1.0)",117.22
C:/Users/srbb21/AppData/Local/Temp/rx18_gr30001521653382.841.odb,RELAX,Increment    105: Step Time =    1.000,SHELL-1,1898,10.5307,3.75,14.5959,ASSEMBLY_SHELL-1_ALLEL,TI,"shell < TI > < 5 section points > : SPOS, (fraction = 1.0)",122.603
C:/Users/srbb21/AppData/Local/Temp/rx18_gr30001521653382.841.odb,RELAX,Increment    105: Step Time =    1.000,SHELL-1,1898,10.5307,3.75,14.5959,ASSEMBLY_SHELL-1_ALLEL,TI,"shell < TI > < 5 section points > : SNEG, (fraction = -1.0)",117.123
C:/Users/srbb21/AppData/Local/Temp/rx18_gr30001521653382.841.odb,RELAX,Increment    105: Step Time =    1.000,SHELL-1,1899,10.5307,4.25,14.5959,ASSEMBLY_SHELL-1_ALLEL,TI,"shell < TI > < 5 section points > : SPOS, (fraction = 1.0)",120.728
C:/Users/srbb21/AppData/Local/Temp/rx18_gr30001521653382.841.odb,RELAX,Increment    105: Step Time =    1.000,SHELL-1,1899,10.5307,4.25,14.5959,ASSEMBLY_SHELL-1_ALLEL,TI,"shell < TI > < 5 section points > : SNEG, (fraction = -1.0)",116.933
C:/Users/srbb21/AppData/Local/Temp/rx18_gr30001521653382.841.odb,RELAX,Increment    105: Step Time =    1.000,SHELL-1,1900,10.5307,4.75,14.5959,ASSEMBLY_SHELL-1_ALLEL,TI,"shell < TI > < 5 section points > : SNEG, (fraction = -1.0)",116.585
C:/Users/srbb21/AppData/Local/Temp/rx18_gr30001521653382.841.odb,RELAX,Increment    105: Step Time =    1.000,SHELL-1,1900,10.5307,4.75,14.5959,ASSEMBLY_SHELL-1_ALLEL,TI,"shell < TI > < 5 section points > : SPOS, (fraction = 1.0)",118.602
C:/Users/srbb21/AppData/Local/Temp/rx18_gr30001521653382.841.odb,RELAX,Increment    105: Step Time =    1.000,SHELL-1,1901,10.5307,5.25,14.5959,ASSEMBLY_SHELL-1_ALLEL,TI,"shell < TI > < 5 section points > : SPOS, (fraction = 1.0)",116.287
C:/Users/srbb21/AppData/Local/Temp/rx18_gr30001521653382.841.odb,RELAX,Increment    105: Step Time =    1.000,SHELL-1,1901,10.5307,5.25,14.5959,ASSEMBLY_SHELL-1_ALLEL,TI,"shell < TI > < 5 section points > : SNEG, (fraction = -1.0)",115.946
C:/Users/srbb21/AppData/Local/Temp/rx18_gr30001521653382.841.odb,RELAX,Increment    105: Step Time =    1.000,SHELL-1,1902,10.5307,5.75,14.5959,ASSEMBLY_SHELL-1_ALLEL,TI,"shell < TI > < 5 section points > : SPOS, (fraction = 1.0)",113.927
C:/Users/srbb21/AppData/Local/Temp/rx18_gr30001521653382.841.odb,RELAX,Increment    105: Step Time =    1.000,SHELL-1,1902,10.5307,5.75,14.5959,ASSEMBLY_SHELL-1_ALLEL,TI,"shell < TI > < 5 section points > : SNEG, (fraction = -1.0)",114.808
C:/Users/srbb21/AppData/Local/Temp/rx18_gr30001521653382.841.odb,RELAX,Increment    105: Step Time =    1.000,SHELL-1,1903,10.5307,6.25,14.5959,ASSEMBLY_SHELL-1_ALLEL,TI,"shell < TI > < 5 section points > : SPOS, (fraction = 1.0)",111.858
C:/Users/srbb21/AppData/Local/Temp/rx18_gr30001521653382.841.odb,RELAX,Increment    105: Step Time =    1.000,SHELL-1,1903,10.5307,6.25,14.5959,ASSEMBLY_SHELL-1_ALLEL,TI,"shell < TI > < 5 section points > : SNEG, (fraction = -1.0)",112.828
C:/Users/srbb21/AppData/Local/Temp/rx18_gr30001521653382.841.odb,RELAX,Increment    105: Step Time =    1.000,SHELL-1,1904,10.5307,6.75,14.5959,ASSEMBLY_SHELL-1_ALLEL,TI,"shell < TI > < 5 section points > : SNEG, (fraction = -1.0)",109.506
C:/Users/srbb21/AppData/Local/Temp/rx18_gr30001521653382.841.odb,RELAX,Increment    105: Step Time =    1.000,SHELL-1,1904,10.5307,6.75,14.5959,ASSEMBLY_SHELL-1_ALLEL,TI,"shell < TI > < 5 section points > : SPOS, (fraction = 1.0)",110.699
C:/Users/srbb21/AppData/Local/Temp/rx18_gr30001521653382.841.odb,RELAX,Increment    105: Step Time =    1.000,SHELL-1,1905,10.5307,7.25,14.5959,ASSEMBLY_SHELL-1_ALLEL,TI,"shell < TI > < 5 section points > : SPOS, (fraction = 1.0)",111.468
C:/Users/srbb21/AppData/Local/Temp/rx18_gr30001521653382.841.odb,RELAX,Increment    105: Step Time =    1.000,SHELL-1,1905,10.5307,7.25,14.5959,ASSEMBLY_SHELL-1_ALLEL,TI,"shell < TI > < 5 section points > : SNEG, (fraction = -1.0)",104.182
C:/Users/srbb21/AppData/Local/Temp/rx18_gr30001521653382.841.odb,RELAX,Increment    105: Step Time =    1.000,SHELL-1,1906,10.5307,7.75,14.5959,ASSEMBLY_SHELL-1_ALLEL,TI,"shell < TI > < 5 section points > : SPOS, (fraction = 1.0)",115.521
C:/Users/srbb21/AppData/Local/Temp/rx18_gr30001521653382.841.odb,RELAX,Increment    105: Step Time =    1.000,SHELL-1,1906,10.5307,7.75,14.5959,ASSEMBLY_SHELL-1_ALLEL,TI,"shell < TI > < 5 section points > : SNEG, (fraction = -1.0)",96.0208
C:/Users/srbb21/AppData/Local/Temp/rx18_gr30001521653382.841.odb,RELAX,Increment    105: Step Time =    1.000,SHELL-1,1907,10.5307,8.25,14.5959,ASSEMBLY_SHELL-1_ALLEL,TI,"shell < TI > < 5 section points > : SPOS, (fraction = 1.0)",124.294
C:/Users/srbb21/AppData/Local/Temp/rx18_gr30001521653382.841.odb,RELAX,Increment    105: Step Time =    1.000,SHELL-1,1907,10.5307,8.25,14.5959,ASSEMBLY_SHELL-1_ALLEL,TI,"shell < TI > < 5 section points > : SNEG, (fraction = -1.0)",84.2399
C:/Users/srbb21/AppData/Local/Temp/rx18_gr30001521653382.841.odb,RELAX,Increment    105: Step Time =    1.000,SHELL-1,1908,10.5307,8.75,14.5959,ASSEMBLY_SHELL-1_ALLEL,TI,"shell < TI > < 5 section points > : SNEG, (fraction = -1.0)",68.1735
C:/Users/srbb21/AppData/Local/Temp/rx18_gr30001521653382.841.odb,RELAX,Increment    105: Step Time =    1.000,SHELL-1,1908,10.5307,8.75,14.5959,ASSEMBLY_SHELL-1_ALLEL,TI,"shell < TI > < 5 section points > : SPOS, (fraction = 1.0)",138.673
C:/Users/srbb21/AppData/Local/Temp/rx18_gr30001521653382.841.odb,RELAX,Increment    105: Step Time =    1.000,SHELL-1,1909,10.9321,-8.75,14.2978,ASSEMBLY_SHELL-1_ALLEL,TI,"shell < TI > < 5 section points > : SPOS, (fraction = 1.0)",132.19
C:/Users/srbb21/AppData/Local/Temp/rx18_gr30001521653382.841.odb,RELAX,Increment    105: Step Time =    1.000,SHELL-1,1909,10.9321,-8.75,14.2978,ASSEMBLY_SHELL-1_ALLEL,TI,"shell < TI > < 5 section points > : SNEG, (fraction = -1.0)",59.7878
C:/Users/srbb21/AppData/Local/Temp/rx18_gr30001521653382.841.odb,RELAX,Increment    105: Step Time =    1.000,SHELL-1,1910,10.9321,-8.25,14.2978,ASSEMBLY_SHELL-1_ALLEL,TI,"shell < TI > < 5 section points > : SPOS, (fraction = 1.0)",116.113
C:/Users/srbb21/AppData/Local/Temp/rx18_gr30001521653382.841.odb,RELAX,Increment    105: Step Time =    1.000,SHELL-1,1910,10.9321,-8.25,14.2978,ASSEMBLY_SHELL-1_ALLEL,TI,"shell < TI > < 5 section points > : SNEG, (fraction = -1.0)",77.3571
C:/Users/srbb21/AppData/Local/Temp/rx18_gr30001521653382.841.odb,RELAX,Increment    105: Step Time =    1.000,SHELL-1,1911,10.9321,-7.75,14.2978,ASSEMBLY_SHELL-1_ALLEL,TI,"shell < TI > < 5 section points > : SPOS, (fraction = 1.0)",107.55
C:/Users/srbb21/AppData/Local/Temp/rx18_gr30001521653382.841.odb,RELAX,Increment    105: Step Time =    1.000,SHELL-1,1911,10.9321,-7.75,14.2978,ASSEMBLY_SHELL-1_ALLEL,TI,"shell < TI > < 5 section points > : SNEG, (fraction = -1.0)",89.3643
C:/Users/srbb21/AppData/Local/Temp/rx18_gr30001521653382.841.odb,RELAX,Increment    105: Step Time =    1.000,SHELL-1,1912,10.9321,-7.25,14.2978,ASSEMBLY_SHELL-1_ALLEL,TI,"shell < TI > < 5 section points > : SPOS, (fraction = 1.0)",104.693
C:/Users/srbb21/AppData/Local/Temp/rx18_gr30001521653382.841.odb,RELAX,Increment    105: Step Time =    1.000,SHELL-1,1912,10.9321,-7.25,14.2978,ASSEMBLY_SHELL-1_ALLEL,TI,"shell < TI > < 5 section points > : SNEG, (fraction = -1.0)",97.0657
C:/Users/srbb21/AppData/Local/Temp/rx18_gr30001521653382.841.odb,RELAX,Increment    105: Step Time =    1.000,SHELL-1,1913,10.9321,-6.75,14.2978,ASSEMBLY_SHELL-1_ALLEL,TI,"shell < TI > < 5 section points > : SNEG, (fraction = -1.0)",101.711
C:/Users/srbb21/AppData/Local/Temp/rx18_gr30001521653382.841.odb,RELAX,Increment    105: Step Time =    1.000,SHELL-1,1913,10.9321,-6.75,14.2978,ASSEMBLY_SHELL-1_ALLEL,TI,"shell < TI > < 5 section points > : SPOS, (fraction = 1.0)",105.21
C:/Users/srbb21/AppData/Local/Temp/rx18_gr30001521653382.841.odb,RELAX,Increment    105: Step Time =    1.000,SHELL-1,1914,10.9321,-6.25,14.2978,ASSEMBLY_SHELL-1_ALLEL,TI,"shell < TI > < 5 section points > : SPOS, (fraction = 1.0)",107.341
C:/Users/srbb21/AppData/Local/Temp/rx18_gr30001521653382.841.odb,RELAX,Increment    105: Step Time =    1.000,SHELL-1,1914,10.9321,-6.25,14.2978,ASSEMBLY_SHELL-1_ALLEL,TI,"shell < TI > < 5 section points > : SNEG, (fraction = -1.0)",104.378
C:/Users/srbb21/AppData/Local/Temp/rx18_gr30001521653382.841.odb,RELAX,Increment    105: Step Time =    1.000,SHELL-1,1915,10.9321,-5.75,14.2978,ASSEMBLY_SHELL-1_ALLEL,TI,"shell < TI > < 5 section points > : SPOS, (fraction = 1.0)",109.938
C:/Users/srbb21/AppData/Local/Temp/rx18_gr30001521653382.841.odb,RELAX,Increment    105: Step Time =    1.000,SHELL-1,1915,10.9321,-5.75,14.2978,ASSEMBLY_SHELL-1_ALLEL,TI,"shell < TI > < 5 section points > : SNEG, (fraction = -1.0)",105.85
C:/Users/srbb21/AppData/Local/Temp/rx18_gr30001521653382.841.odb,RELAX,Increment    105: Step Time =    1.000,SHELL-1,1916,10.9321,-5.25,14.2978,ASSEMBLY_SHELL-1_ALLEL,TI,"shell < TI > < 5 section points > : SPOS, (fraction = 1.0)",112.465
C:/Users/srbb21/AppData/Local/Temp/rx18_gr30001521653382.841.odb,RELAX,Increment    105: Step Time =    1.000,SHELL-1,1916,10.9321,-5.25,14.2978,ASSEMBLY_SHELL-1_ALLEL,TI,"shell < TI > < 5 section points > : SNEG, (fraction = -1.0)",106.652
C:/Users/srbb21/AppData/Local/Temp/rx18_gr30001521653382.841.odb,RELAX,Increment    105: Step Time =    1.000,SHELL-1,1917,10.9321,-4.75,14.2978,ASSEMBLY_SHELL-1_ALLEL,TI,"shell < TI > < 5 section points > : SNEG, (fraction = -1.0)",107.089
C:/Users/srbb21/AppData/Local/Temp/rx18_gr30001521653382.841.odb,RELAX,Increment    105: Step Time =    1.000,SHELL-1,1917,10.9321,-4.75,14.2978,ASSEMBLY_SHELL-1_ALLEL,TI,"shell < TI > < 5 section points > : SPOS, (fraction = 1.0)",114.699
C:/Users/srbb21/AppData/Local/Temp/rx18_gr30001521653382.841.odb,RELAX,Increment    105: Step Time =    1.000,SHELL-1,1918,10.9321,-4.25,14.2978,ASSEMBLY_SHELL-1_ALLEL,TI,"shell < TI > < 5 section points > : SPOS, (fraction = 1.0)",116.59
C:/Users/srbb21/AppData/Local/Temp/rx18_gr30001521653382.841.odb,RELAX,Increment    105: Step Time =    1.000,SHELL-1,1918,10.9321,-4.25,14.2978,ASSEMBLY_SHELL-1_ALLEL,TI,"shell < TI > < 5 section points > : SNEG, (fraction = -1.0)",107.344
C:/Users/srbb21/AppData/Local/Temp/rx18_gr30001521653382.841.odb,RELAX,Increment    105: Step Time =    1.000,SHELL-1,1919,10.9321,-3.75,14.2978,ASSEMBLY_SHELL-1_ALLEL,TI,"shell < TI > < 5 section points > : SPOS, (fraction = 1.0)",118.164
C:/Users/srbb21/AppData/Local/Temp/rx18_gr30001521653382.841.odb,RELAX,Increment    105: Step Time =    1.000,SHELL-1,1919,10.9321,-3.75,14.2978,ASSEMBLY_SHELL-1_ALLEL,TI,"shell < TI > < 5 section points > : SNEG, (fraction = -1.0)",107.499
C:/Users/srbb21/AppData/Local/Temp/rx18_gr30001521653382.841.odb,RELAX,Increment    105: Step Time =    1.000,SHELL-1,1920,10.9321,-3.25,14.2978,ASSEMBLY_SHELL-1_ALLEL,TI,"shell < TI > < 5 section points > : SPOS, (fraction = 1.0)",119.459
C:/Users/srbb21/AppData/Local/Temp/rx18_gr30001521653382.841.odb,RELAX,Increment    105: Step Time =    1.000,SHELL-1,1920,10.9321,-3.25,14.2978,ASSEMBLY_SHELL-1_ALLEL,TI,"shell < TI > < 5 section points > : SNEG, (fraction = -1.0)",107.6
C:/Users/srbb21/AppData/Local/Temp/rx18_gr30001521653382.841.odb,RELAX,Increment    105: Step Time =    1.000,SHELL-1,1921,10.9321,-2.75,14.2978,ASSEMBLY_SHELL-1_ALLEL,TI,"shell < TI > < 5 section points > : SNEG, (fraction = -1.0)",107.663
C:/Users/srbb21/AppData/Local/Temp/rx18_gr30001521653382.841.odb,RELAX,Increment    105: Step Time =    1.000,SHELL-1,1921,10.9321,-2.75,14.2978,ASSEMBLY_SHELL-1_ALLEL,TI,"shell < TI > < 5 section points > : SPOS, (fraction = 1.0)",120.518
C:/Users/srbb21/AppData/Local/Temp/rx18_gr30001521653382.841.odb,RELAX,Increment    105: Step Time =    1.000,SHELL-1,1922,10.9321,-2.25,14.2978,ASSEMBLY_SHELL-1_ALLEL,TI,"shell < TI > < 5 section points > : SPOS, (fraction = 1.0)",121.366
C:/Users/srbb21/AppData/Local/Temp/rx18_gr30001521653382.841.odb,RELAX,Increment    105: Step Time =    1.000,SHELL-1,1922,10.9321,-2.25,14.2978,ASSEMBLY_SHELL-1_ALLEL,TI,"shell < TI > < 5 section points > : SNEG, (fraction = -1.0)",107.7
C:/Users/srbb21/AppData/Local/Temp/rx18_gr30001521653382.841.odb,RELAX,Increment    105: Step Time =    1.000,SHELL-1,1923,10.9321,-1.75,14.2978,ASSEMBLY_SHELL-1_ALLEL,TI,"shell < TI > < 5 section points > : SPOS, (fraction = 1.0)",122.028
C:/Users/srbb21/AppData/Local/Temp/rx18_gr30001521653382.841.odb,RELAX,Increment    105: Step Time =    1.000,SHELL-1,1923,10.9321,-1.75,14.2978,ASSEMBLY_SHELL-1_ALLEL,TI,"shell < TI > < 5 section points > : SNEG, (fraction = -1.0)",107.718
C:/Users/srbb21/AppData/Local/Temp/rx18_gr30001521653382.841.odb,RELAX,Increment    105: Step Time =    1.000,SHELL-1,1924,10.9321,-1.25,14.2978,ASSEMBLY_SHELL-1_ALLEL,TI,"shell < TI > < 5 section points > : SPOS, (fraction = 1.0)",122.515
C:/Users/srbb21/AppData/Local/Temp/rx18_gr30001521653382.841.odb,RELAX,Increment    105: Step Time =    1.000,SHELL-1,1924,10.9321,-1.25,14.2978,ASSEMBLY_SHELL-1_ALLEL,TI,"shell < TI > < 5 section points > : SNEG, (fraction = -1.0)",107.723
C:/Users/srbb21/AppData/Local/Temp/rx18_gr30001521653382.841.odb,RELAX,Increment    105: Step Time =    1.000,SHELL-1,1925,10.9321,-0.75,14.2978,ASSEMBLY_SHELL-1_ALLEL,TI,"shell < TI > < 5 section points > : SNEG, (fraction = -1.0)",107.723
C:/Users/srbb21/AppData/Local/Temp/rx18_gr30001521653382.841.odb,RELAX,Increment    105: Step Time =    1.000,SHELL-1,1925,10.9321,-0.75,14.2978,ASSEMBLY_SHELL-1_ALLEL,TI,"shell < TI > < 5 section points > : SPOS, (fraction = 1.0)",122.837
C:/Users/srbb21/AppData/Local/Temp/rx18_gr30001521653382.841.odb,RELAX,Increment    105: Step Time =    1.000,SHELL-1,1926,10.9321,-0.25,14.2978,ASSEMBLY_SHELL-1_ALLEL,TI,"shell < TI > < 5 section points > : SPOS, (fraction = 1.0)",122.996
C:/Users/srbb21/AppData/Local/Temp/rx18_gr30001521653382.841.odb,RELAX,Increment    105: Step Time =    1.000,SHELL-1,1926,10.9321,-0.25,14.2978,ASSEMBLY_SHELL-1_ALLEL,TI,"shell < TI > < 5 section points > : SNEG, (fraction = -1.0)",107.721
C:/Users/srbb21/AppData/Local/Temp/rx18_gr30001521653382.841.odb,RELAX,Increment    105: Step Time =    1.000,SHELL-1,1927,10.9321,0.25,14.2978,ASSEMBLY_SHELL-1_ALLEL,TI,"shell < TI > < 5 section points > : SPOS, (fraction = 1.0)",122.996
C:/Users/srbb21/AppData/Local/Temp/rx18_gr30001521653382.841.odb,RELAX,Increment    105: Step Time =    1.000,SHELL-1,1927,10.9321,0.25,14.2978,ASSEMBLY_SHELL-1_ALLEL,TI,"shell < TI > < 5 section points > : SNEG, (fraction = -1.0)",107.721
C:/Users/srbb21/AppData/Local/Temp/rx18_gr30001521653382.841.odb,RELAX,Increment    105: Step Time =    1.000,SHELL-1,1928,10.9321,0.75,14.2978,ASSEMBLY_SHELL-1_ALLEL,TI,"shell < TI > < 5 section points > : SPOS, (fraction = 1.0)",122.837
C:/Users/srbb21/AppData/Local/Temp/rx18_gr30001521653382.841.odb,RELAX,Increment    105: Step Time =    1.000,SHELL-1,1928,10.9321,0.75,14.2978,ASSEMBLY_SHELL-1_ALLEL,TI,"shell < TI > < 5 section points > : SNEG, (fraction = -1.0)",107.723
C:/Users/srbb21/AppData/Local/Temp/rx18_gr30001521653382.841.odb,RELAX,Increment    105: Step Time =    1.000,SHELL-1,1929,10.9321,1.25,14.2978,ASSEMBLY_SHELL-1_ALLEL,TI,"shell < TI > < 5 section points > : SPOS, (fraction = 1.0)",122.515
C:/Users/srbb21/AppData/Local/Temp/rx18_gr30001521653382.841.odb,RELAX,Increment    105: Step Time =    1.000,SHELL-1,1929,10.9321,1.25,14.2978,ASSEMBLY_SHELL-1_ALLEL,TI,"shell < TI > < 5 section points > : SNEG, (fraction = -1.0)",107.723
C:/Users/srbb21/AppData/Local/Temp/rx18_gr30001521653382.841.odb,RELAX,Increment    105: Step Time =    1.000,SHELL-1,1930,10.9321,1.75,14.2978,ASSEMBLY_SHELL-1_ALLEL,TI,"shell < TI > < 5 section points > : SNEG, (fraction = -1.0)",107.718
C:/Users/srbb21/AppData/Local/Temp/rx18_gr30001521653382.841.odb,RELAX,Increment    105: Step Time =    1.000,SHELL-1,1930,10.9321,1.75,14.2978,ASSEMBLY_SHELL-1_ALLEL,TI,"shell < TI > < 5 section points > : SPOS, (fraction = 1.0)",122.028
C:/Users/srbb21/AppData/Local/Temp/rx18_gr30001521653382.841.odb,RELAX,Increment    105: Step Time =    1.000,SHELL-1,1931,10.9321,2.25,14.2978,ASSEMBLY_SHELL-1_ALLEL,TI,"shell < TI > < 5 section points > : SPOS, (fraction = 1.0)",121.366
C:/Users/srbb21/AppData/Local/Temp/rx18_gr30001521653382.841.odb,RELAX,Increment    105: Step Time =    1.000,SHELL-1,1931,10.9321,2.25,14.2978,ASSEMBLY_SHELL-1_ALLEL,TI,"shell < TI > < 5 section points > : SNEG, (fraction = -1.0)",107.7
C:/Users/srbb21/AppData/Local/Temp/rx18_gr30001521653382.841.odb,RELAX,Increment    105: Step Time =    1.000,SHELL-1,1932,10.9321,2.75,14.2978,ASSEMBLY_SHELL-1_ALLEL,TI,"shell < TI > < 5 section points > : SPOS, (fraction = 1.0)",120.518
C:/Users/srbb21/AppData/Local/Temp/rx18_gr30001521653382.841.odb,RELAX,Increment    105: Step Time =    1.000,SHELL-1,1932,10.9321,2.75,14.2978,ASSEMBLY_SHELL-1_ALLEL,TI,"shell < TI > < 5 section points > : SNEG, (fraction = -1.0)",107.663
C:/Users/srbb21/AppData/Local/Temp/rx18_gr30001521653382.841.odb,RELAX,Increment    105: Step Time =    1.000,SHELL-1,1933,10.9321,3.25,14.2978,ASSEMBLY_SHELL-1_ALLEL,TI,"shell < TI > < 5 section points > : SPOS, (fraction = 1.0)",119.459
C:/Users/srbb21/AppData/Local/Temp/rx18_gr30001521653382.841.odb,RELAX,Increment    105: Step Time =    1.000,SHELL-1,1933,10.9321,3.25,14.2978,ASSEMBLY_SHELL-1_ALLEL,TI,"shell < TI > < 5 section points > : SNEG, (fraction = -1.0)",107.6
C:/Users/srbb21/AppData/Local/Temp/rx18_gr30001521653382.841.odb,RELAX,Increment    105: Step Time =    1.000,SHELL-1,1934,10.9321,3.75,14.2978,ASSEMBLY_SHELL-1_ALLEL,TI,"shell < TI > < 5 section points > : SNEG, (fraction = -1.0)",107.499
C:/Users/srbb21/AppData/Local/Temp/rx18_gr30001521653382.841.odb,RELAX,Increment    105: Step Time =    1.000,SHELL-1,1934,10.9321,3.75,14.2978,ASSEMBLY_SHELL-1_ALLEL,TI,"shell < TI > < 5 section points > : SPOS, (fraction = 1.0)",118.164
C:/Users/srbb21/AppData/Local/Temp/rx18_gr30001521653382.841.odb,RELAX,Increment    105: Step Time =    1.000,SHELL-1,1935,10.9321,4.25,14.2978,ASSEMBLY_SHELL-1_ALLEL,TI,"shell < TI > < 5 section points > : SPOS, (fraction = 1.0)",116.59
C:/Users/srbb21/AppData/Local/Temp/rx18_gr30001521653382.841.odb,RELAX,Increment    105: Step Time =    1.000,SHELL-1,1935,10.9321,4.25,14.2978,ASSEMBLY_SHELL-1_ALLEL,TI,"shell < TI > < 5 section points > : SNEG, (fraction = -1.0)",107.344
C:/Users/srbb21/AppData/Local/Temp/rx18_gr30001521653382.841.odb,RELAX,Increment    105: Step Time =    1.000,SHELL-1,1936,10.9321,4.75,14.2978,ASSEMBLY_SHELL-1_ALLEL,TI,"shell < TI > < 5 section points > : SPOS, (fraction = 1.0)",114.699
C:/Users/srbb21/AppData/Local/Temp/rx18_gr30001521653382.841.odb,RELAX,Increment    105: Step Time =    1.000,SHELL-1,1936,10.9321,4.75,14.2978,ASSEMBLY_SHELL-1_ALLEL,TI,"shell < TI > < 5 section points > : SNEG, (fraction = -1.0)",107.089
C:/Users/srbb21/AppData/Local/Temp/rx18_gr30001521653382.841.odb,RELAX,Increment    105: Step Time =    1.000,SHELL-1,1937,10.9321,5.25,14.2978,ASSEMBLY_SHELL-1_ALLEL,TI,"shell < TI > < 5 section points > : SPOS, (fraction = 1.0)",112.465
C:/Users/srbb21/AppData/Local/Temp/rx18_gr30001521653382.841.odb,RELAX,Increment    105: Step Time =    1.000,SHELL-1,1937,10.9321,5.25,14.2978,ASSEMBLY_SHELL-1_ALLEL,TI,"shell < TI > < 5 section points > : SNEG, (fraction = -1.0)",106.652
C:/Users/srbb21/AppData/Local/Temp/rx18_gr30001521653382.841.odb,RELAX,Increment    105: Step Time =    1.000,SHELL-1,1938,10.9321,5.75,14.2978,ASSEMBLY_SHELL-1_ALLEL,TI,"shell < TI > < 5 section points > : SNEG, (fraction = -1.0)",105.85
C:/Users/srbb21/AppData/Local/Temp/rx18_gr30001521653382.841.odb,RELAX,Increment    105: Step Time =    1.000,SHELL-1,1938,10.9321,5.75,14.2978,ASSEMBLY_SHELL-1_ALLEL,TI,"shell < TI > < 5 section points > : SPOS, (fraction = 1.0)",109.938
C:/Users/srbb21/AppData/Local/Temp/rx18_gr30001521653382.841.odb,RELAX,Increment    105: Step Time =    1.000,SHELL-1,1939,10.9321,6.25,14.2978,ASSEMBLY_SHELL-1_ALLEL,TI,"shell < TI > < 5 section points > : SPOS, (fraction = 1.0)",107.341
C:/Users/srbb21/AppData/Local/Temp/rx18_gr30001521653382.841.odb,RELAX,Increment    105: Step Time =    1.000,SHELL-1,1939,10.9321,6.25,14.2978,ASSEMBLY_SHELL-1_ALLEL,TI,"shell < TI > < 5 section points > : SNEG, (fraction = -1.0)",104.378
C:/Users/srbb21/AppData/Local/Temp/rx18_gr30001521653382.841.odb,RELAX,Increment    105: Step Time =    1.000,SHELL-1,1940,10.9321,6.75,14.2978,ASSEMBLY_SHELL-1_ALLEL,TI,"shell < TI > < 5 section points > : SPOS, (fraction = 1.0)",105.21
C:/Users/srbb21/AppData/Local/Temp/rx18_gr30001521653382.841.odb,RELAX,Increment    105: Step Time =    1.000,SHELL-1,1940,10.9321,6.75,14.2978,ASSEMBLY_SHELL-1_ALLEL,TI,"shell < TI > < 5 section points > : SNEG, (fraction = -1.0)",101.711
C:/Users/srbb21/AppData/Local/Temp/rx18_gr30001521653382.841.odb,RELAX,Increment    105: Step Time =    1.000,SHELL-1,1941,10.9321,7.25,14.2978,ASSEMBLY_SHELL-1_ALLEL,TI,"shell < TI > < 5 section points > : SPOS, (fraction = 1.0)",104.693
C:/Users/srbb21/AppData/Local/Temp/rx18_gr30001521653382.841.odb,RELAX,Increment    105: Step Time =    1.000,SHELL-1,1941,10.9321,7.25,14.2978,ASSEMBLY_SHELL-1_ALLEL,TI,"shell < TI > < 5 section points > : SNEG, (fraction = -1.0)",97.0657
C:/Users/srbb21/AppData/Local/Temp/rx18_gr30001521653382.841.odb,RELAX,Increment    105: Step Time =    1.000,SHELL-1,1942,10.9321,7.75,14.2978,ASSEMBLY_SHELL-1_ALLEL,TI,"shell < TI > < 5 section points > : SNEG, (fraction = -1.0)",89.3643
C:/Users/srbb21/AppData/Local/Temp/rx18_gr30001521653382.841.odb,RELAX,Increment    105: Step Time =    1.000,SHELL-1,1942,10.9321,7.75,14.2978,ASSEMBLY_SHELL-1_ALLEL,TI,"shell < TI > < 5 section points > : SPOS, (fraction = 1.0)",107.55
C:/Users/srbb21/AppData/Local/Temp/rx18_gr30001521653382.841.odb,RELAX,Increment    105: Step Time =    1.000,SHELL-1,1943,10.9321,8.25,14.2978,ASSEMBLY_SHELL-1_ALLEL,TI,"shell < TI > < 5 section points > : SPOS, (fraction = 1.0)",116.113
C:/Users/srbb21/AppData/Local/Temp/rx18_gr30001521653382.841.odb,RELAX,Increment    105: Step Time =    1.000,SHELL-1,1943,10.9321,8.25,14.2978,ASSEMBLY_SHELL-1_ALLEL,TI,"shell < TI > < 5 section points > : SNEG, (fraction = -1.0)",77.3571
C:/Users/srbb21/AppData/Local/Temp/rx18_gr30001521653382.841.odb,RELAX,Increment    105: Step Time =    1.000,SHELL-1,1944,10.9321,8.75,14.2978,ASSEMBLY_SHELL-1_ALLEL,TI,"shell < TI > < 5 section points > : SPOS, (fraction = 1.0)",132.19
C:/Users/srbb21/AppData/Local/Temp/rx18_gr30001521653382.841.odb,RELAX,Increment    105: Step Time =    1.000,SHELL-1,1944,10.9321,8.75,14.2978,ASSEMBLY_SHELL-1_ALLEL,TI,"shell < TI > < 5 section points > : SNEG, (fraction = -1.0)",59.7878
C:/Users/srbb21/AppData/Local/Temp/rx18_gr30001521653382.841.odb,RELAX,Increment    105: Step Time =    1.000,SHELL-1,1945,11.325,-8.75,13.9887,ASSEMBLY_SHELL-1_ALLEL,TI,"shell < TI > < 5 section points > : SPOS, (fraction = 1.0)",122.094
C:/Users/srbb21/AppData/Local/Temp/rx18_gr30001521653382.841.odb,RELAX,Increment    105: Step Time =    1.000,SHELL-1,1945,11.325,-8.75,13.9887,ASSEMBLY_SHELL-1_ALLEL,TI,"shell < TI > < 5 section points > : SNEG, (fraction = -1.0)",50.3461
C:/Users/srbb21/AppData/Local/Temp/rx18_gr30001521653382.841.odb,RELAX,Increment    105: Step Time =    1.000,SHELL-1,1946,11.325,-8.25,13.9887,ASSEMBLY_SHELL-1_ALLEL,TI,"shell < TI > < 5 section points > : SPOS, (fraction = 1.0)",105.028
C:/Users/srbb21/AppData/Local/Temp/rx18_gr30001521653382.841.odb,RELAX,Increment    105: Step Time =    1.000,SHELL-1,1946,11.325,-8.25,13.9887,ASSEMBLY_SHELL-1_ALLEL,TI,"shell < TI > < 5 section points > : SNEG, (fraction = -1.0)",68.9849
C:/Users/srbb21/AppData/Local/Temp/rx18_gr30001521653382.841.odb,RELAX,Increment    105: Step Time =    1.000,SHELL-1,1947,11.325,-7.75,13.9887,ASSEMBLY_SHELL-1_ALLEL,TI,"shell < TI > < 5 section points > : SNEG, (fraction = -1.0)",80.6843
C:/Users/srbb21/AppData/Local/Temp/rx18_gr30001521653382.841.odb,RELAX,Increment    105: Step Time =    1.000,SHELL-1,1947,11.325,-7.75,13.9887,ASSEMBLY_SHELL-1_ALLEL,TI,"shell < TI > < 5 section points > : SPOS, (fraction = 1.0)",97.6991
C:/Users/srbb21/AppData/Local/Temp/rx18_gr30001521653382.841.odb,RELAX,Increment    105: Step Time =    1.000,SHELL-1,1948,11.325,-7.25,13.9887,ASSEMBLY_SHELL-1_ALLEL,TI,"shell < TI > < 5 section points > : SPOS, (fraction = 1.0)",96.684
C:/Users/srbb21/AppData/Local/Temp/rx18_gr30001521653382.841.odb,RELAX,Increment    105: Step Time =    1.000,SHELL-1,1948,11.325,-7.25,13.9887,ASSEMBLY_SHELL-1_ALLEL,TI,"shell < TI > < 5 section points > : SNEG, (fraction = -1.0)",87.5421
C:/Users/srbb21/AppData/Local/Temp/rx18_gr30001521653382.841.odb,RELAX,Increment    105: Step Time =    1.000,SHELL-1,1949,11.325,-6.75,13.9887,ASSEMBLY_SHELL-1_ALLEL,TI,"shell < TI > < 5 section points > : SPOS, (fraction = 1.0)",98.6507
C:/Users/srbb21/AppData/Local/Temp/rx18_gr30001521653382.841.odb,RELAX,Increment    105: Step Time =    1.000,SHELL-1,1949,11.325,-6.75,13.9887,ASSEMBLY_SHELL-1_ALLEL,TI,"shell < TI > < 5 section points > : SNEG, (fraction = -1.0)",91.2944
C:/Users/srbb21/AppData/Local/Temp/rx18_gr30001521653382.841.odb,RELAX,Increment    105: Step Time =    1.000,SHELL-1,1950,11.325,-6.25,13.9887,ASSEMBLY_SHELL-1_ALLEL,TI,"shell < TI > < 5 section points > : SPOS, (fraction = 1.0)",101.507
C:/Users/srbb21/AppData/Local/Temp/rx18_gr30001521653382.841.odb,RELAX,Increment    105: Step Time =    1.000,SHELL-1,1950,11.325,-6.25,13.9887,ASSEMBLY_SHELL-1_ALLEL,TI,"shell < TI > < 5 section points > : SNEG, (fraction = -1.0)",93.2807
C:/Users/srbb21/AppData/Local/Temp/rx18_gr30001521653382.841.odb,RELAX,Increment    105: Step Time =    1.000,SHELL-1,1951,11.325,-5.75,13.9887,ASSEMBLY_SHELL-1_ALLEL,TI,"shell < TI > < 5 section points > : SNEG, (fraction = -1.0)",94.3292
C:/Users/srbb21/AppData/Local/Temp/rx18_gr30001521653382.841.odb,RELAX,Increment    105: Step Time =    1.000,SHELL-1,1951,11.325,-5.75,13.9887,ASSEMBLY_SHELL-1_ALLEL,TI,"shell < TI > < 5 section points > : SPOS, (fraction = 1.0)",104.242
C:/Users/srbb21/AppData/Local/Temp/rx18_gr30001521653382.841.odb,RELAX,Increment    105: Step Time =    1.000,SHELL-1,1952,11.325,-5.25,13.9887,ASSEMBLY_SHELL-1_ALLEL,TI,"shell < TI > < 5 section points > : SPOS, (fraction = 1.0)",106.52
C:/Users/srbb21/AppData/Local/Temp/rx18_gr30001521653382.841.odb,RELAX,Increment    105: Step Time =    1.000,SHELL-1,1952,11.325,-5.25,13.9887,ASSEMBLY_SHELL-1_ALLEL,TI,"shell < TI > < 5 section points > : SNEG, (fraction = -1.0)",94.9078
C:/Users/srbb21/AppData/Local/Temp/rx18_gr30001521653382.841.odb,RELAX,Increment    105: Step Time =    1.000,SHELL-1,1953,11.325,-4.75,13.9887,ASSEMBLY_SHELL-1_ALLEL,TI,"shell < TI > < 5 section points > : SPOS, (fraction = 1.0)",108.286
C:/Users/srbb21/AppData/Local/Temp/rx18_gr30001521653382.841.odb,RELAX,Increment    105: Step Time =    1.000,SHELL-1,1953,11.325,-4.75,13.9887,ASSEMBLY_SHELL-1_ALLEL,TI,"shell < TI > < 5 section points > : SNEG, (fraction = -1.0)",95.2708
C:/Users/srbb21/AppData/Local/Temp/rx18_gr30001521653382.841.odb,RELAX,Increment    105: Step Time =    1.000,SHELL-1,1954,11.325,-4.25,13.9887,ASSEMBLY_SHELL-1_ALLEL,TI,"shell < TI > < 5 section points > : SPOS, (fraction = 1.0)",109.63
C:/Users/srbb21/AppData/Local/Temp/rx18_gr30001521653382.841.odb,RELAX,Increment    105: Step Time =    1.000,SHELL-1,1954,11.325,-4.25,13.9887,ASSEMBLY_SHELL-1_ALLEL,TI,"shell < TI > < 5 section points > : SNEG, (fraction = -1.0)",95.5184
C:/Users/srbb21/AppData/Local/Temp/rx18_gr30001521653382.841.odb,RELAX,Increment    105: Step Time =    1.000,SHELL-1,1955,11.325,-3.75,13.9887,ASSEMBLY_SHELL-1_ALLEL,TI,"shell < TI > < 5 section points > : SNEG, (fraction = -1.0)",95.7033
C:/Users/srbb21/AppData/Local/Temp/rx18_gr30001521653382.841.odb,RELAX,Increment    105: Step Time =    1.000,SHELL-1,1955,11.325,-3.75,13.9887,ASSEMBLY_SHELL-1_ALLEL,TI,"shell < TI > < 5 section points > : SPOS, (fraction = 1.0)",110.644
C:/Users/srbb21/AppData/Local/Temp/rx18_gr30001521653382.841.odb,RELAX,Increment    105: Step Time =    1.000,SHELL-1,1956,11.325,-3.25,13.9887,ASSEMBLY_SHELL-1_ALLEL,TI,"shell < TI > < 5 section points > : SPOS, (fraction = 1.0)",111.421
C:/Users/srbb21/AppData/Local/Temp/rx18_gr30001521653382.841.odb,RELAX,Increment    105: Step Time =    1.000,SHELL-1,1956,11.325,-3.25,13.9887,ASSEMBLY_SHELL-1_ALLEL,TI,"shell < TI > < 5 section points > : SNEG, (fraction = -1.0)",95.8358
C:/Users/srbb21/AppData/Local/Temp/rx18_gr30001521653382.841.odb,RELAX,Increment    105: Step Time =    1.000,SHELL-1,1957,11.325,-2.75,13.9887,ASSEMBLY_SHELL-1_ALLEL,TI,"shell < TI > < 5 section points > : SPOS, (fraction = 1.0)",112.022
C:/Users/srbb21/AppData/Local/Temp/rx18_gr30001521653382.841.odb,RELAX,Increment    105: Step Time =    1.000,SHELL-1,1957,11.325,-2.75,13.9887,ASSEMBLY_SHELL-1_ALLEL,TI,"shell < TI > < 5 section points > : SNEG, (fraction = -1.0)",95.9274
C:/Users/srbb21/AppData/Local/Temp/rx18_gr30001521653382.841.odb,RELAX,Increment    105: Step Time =    1.000,SHELL-1,1958,11.325,-2.25,13.9887,ASSEMBLY_SHELL-1_ALLEL,TI,"shell < TI > < 5 section points > : SPOS, (fraction = 1.0)",112.49
C:/Users/srbb21/AppData/Local/Temp/rx18_gr30001521653382.841.odb,RELAX,Increment    105: Step Time =    1.000,SHELL-1,1958,11.325,-2.25,13.9887,ASSEMBLY_SHELL-1_ALLEL,TI,"shell < TI > < 5 section points > : SNEG, (fraction = -1.0)",95.9821
C:/Users/srbb21/AppData/Local/Temp/rx18_gr30001521653382.841.odb,RELAX,Increment    105: Step Time =    1.000,SHELL-1,1959,11.325,-1.75,13.9887,ASSEMBLY_SHELL-1_ALLEL,TI,"shell < TI > < 5 section points > : SNEG, (fraction = -1.0)",96.01
C:/Users/srbb21/AppData/Local/Temp/rx18_gr30001521653382.841.odb,RELAX,Increment    105: Step Time =    1.000,SHELL-1,1959,11.325,-1.75,13.9887,ASSEMBLY_SHELL-1_ALLEL,TI,"shell < TI > < 5 section points > : SPOS, (fraction = 1.0)",112.848
C:/Users/srbb21/AppData/Local/Temp/rx18_gr30001521653382.841.odb,RELAX,Increment    105: Step Time =    1.000,SHELL-1,1960,11.325,-1.25,13.9887,ASSEMBLY_SHELL-1_ALLEL,TI,"shell < TI > < 5 section points > : SPOS, (fraction = 1.0)",113.111
C:/Users/srbb21/AppData/Local/Temp/rx18_gr30001521653382.841.odb,RELAX,Increment    105: Step Time =    1.000,SHELL-1,1960,11.325,-1.25,13.9887,ASSEMBLY_SHELL-1_ALLEL,TI,"shell < TI > < 5 section points > : SNEG, (fraction = -1.0)",96.0195
C:/Users/srbb21/AppData/Local/Temp/rx18_gr30001521653382.841.odb,RELAX,Increment    105: Step Time =    1.000,SHELL-1,1961,11.325,-0.75,13.9887,ASSEMBLY_SHELL-1_ALLEL,TI,"shell < TI > < 5 section points > : SPOS, (fraction = 1.0)",113.284
C:/Users/srbb21/AppData/Local/Temp/rx18_gr30001521653382.841.odb,RELAX,Increment    105: Step Time =    1.000,SHELL-1,1961,11.325,-0.75,13.9887,ASSEMBLY_SHELL-1_ALLEL,TI,"shell < TI > < 5 section points > : SNEG, (fraction = -1.0)",96.0203
C:/Users/srbb21/AppData/Local/Temp/rx18_gr30001521653382.841.odb,RELAX,Increment    105: Step Time =    1.000,SHELL-1,1962,11.325,-0.25,13.9887,ASSEMBLY_SHELL-1_ALLEL,TI,"shell < TI > < 5 section points > : SPOS, (fraction = 1.0)",113.37
C:/Users/srbb21/AppData/Local/Temp/rx18_gr30001521653382.841.odb,RELAX,Increment    105: Step Time =    1.000,SHELL-1,1962,11.325,-0.25,13.9887,ASSEMBLY_SHELL-1_ALLEL,TI,"shell < TI > < 5 section points > : SNEG, (fraction = -1.0)",96.0187
C:/Users/srbb21/AppData/Local/Temp/rx18_gr30001521653382.841.odb,RELAX,Increment    105: Step Time =    1.000,SHELL-1,1963,11.325,0.25,13.9887,ASSEMBLY_SHELL-1_ALLEL,TI,"shell < TI > < 5 section points > : SPOS, (fraction = 1.0)",113.37
C:/Users/srbb21/AppData/Local/Temp/rx18_gr30001521653382.841.odb,RELAX,Increment    105: Step Time =    1.000,SHELL-1,1963,11.325,0.25,13.9887,ASSEMBLY_SHELL-1_ALLEL,TI,"shell < TI > < 5 section points > : SNEG, (fraction = -1.0)",96.0187
C:/Users/srbb21/AppData/Local/Temp/rx18_gr30001521653382.841.odb,RELAX,Increment    105: Step Time =    1.000,SHELL-1,1964,11.325,0.75,13.9887,ASSEMBLY_SHELL-1_ALLEL,TI,"shell < TI > < 5 section points > : SNEG, (fraction = -1.0)",96.0203
C:/Users/srbb21/AppData/Local/Temp/rx18_gr30001521653382.841.odb,RELAX,Increment    105: Step Time =    1.000,SHELL-1,1964,11.325,0.75,13.9887,ASSEMBLY_SHELL-1_ALLEL,TI,"shell < TI > < 5 section points > : SPOS, (fraction = 1.0)",113.284
C:/Users/srbb21/AppData/Local/Temp/rx18_gr30001521653382.841.odb,RELAX,Increment    105: Step Time =    1.000,SHELL-1,1965,11.325,1.25,13.9887,ASSEMBLY_SHELL-1_ALLEL,TI,"shell < TI > < 5 section points > : SPOS, (fraction = 1.0)",113.111
C:/Users/srbb21/AppData/Local/Temp/rx18_gr30001521653382.841.odb,RELAX,Increment    105: Step Time =    1.000,SHELL-1,1965,11.325,1.25,13.9887,ASSEMBLY_SHELL-1_ALLEL,TI,"shell < TI > < 5 section points > : SNEG, (fraction = -1.0)",96.0195
C:/Users/srbb21/AppData/Local/Temp/rx18_gr30001521653382.841.odb,RELAX,Increment    105: Step Time =    1.000,SHELL-1,1966,11.325,1.75,13.9887,ASSEMBLY_SHELL-1_ALLEL,TI,"shell < TI > < 5 section points > : SPOS, (fraction = 1.0)",112.848
C:/Users/srbb21/AppData/Local/Temp/rx18_gr30001521653382.841.odb,RELAX,Increment    105: Step Time =    1.000,SHELL-1,1966,11.325,1.75,13.9887,ASSEMBLY_SHELL-1_ALLEL,TI,"shell < TI > < 5 section points > : SNEG, (fraction = -1.0)",96.01
C:/Users/srbb21/AppData/Local/Temp/rx18_gr30001521653382.841.odb,RELAX,Increment    105: Step Time =    1.000,SHELL-1,1967,11.325,2.25,13.9887,ASSEMBLY_SHELL-1_ALLEL,TI,"shell < TI > < 5 section points > : SPOS, (fraction = 1.0)",112.49
C:/Users/srbb21/AppData/Local/Temp/rx18_gr30001521653382.841.odb,RELAX,Increment    105: Step Time =    1.000,SHELL-1,1967,11.325,2.25,13.9887,ASSEMBLY_SHELL-1_ALLEL,TI,"shell < TI > < 5 section points > : SNEG, (fraction = -1.0)",95.9821
C:/Users/srbb21/AppData/Local/Temp/rx18_gr30001521653382.841.odb,RELAX,Increment    105: Step Time =    1.000,SHELL-1,1968,11.325,2.75,13.9887,ASSEMBLY_SHELL-1_ALLEL,TI,"shell < TI > < 5 section points > : SNEG, (fraction = -1.0)",95.9274
C:/Users/srbb21/AppData/Local/Temp/rx18_gr30001521653382.841.odb,RELAX,Increment    105: Step Time =    1.000,SHELL-1,1968,11.325,2.75,13.9887,ASSEMBLY_SHELL-1_ALLEL,TI,"shell < TI > < 5 section points > : SPOS, (fraction = 1.0)",112.022
C:/Users/srbb21/AppData/Local/Temp/rx18_gr30001521653382.841.odb,RELAX,Increment    105: Step Time =    1.000,SHELL-1,1969,11.325,3.25,13.9887,ASSEMBLY_SHELL-1_ALLEL,TI,"shell < TI > < 5 section points > : SPOS, (fraction = 1.0)",111.421
C:/Users/srbb21/AppData/Local/Temp/rx18_gr30001521653382.841.odb,RELAX,Increment    105: Step Time =    1.000,SHELL-1,1969,11.325,3.25,13.9887,ASSEMBLY_SHELL-1_ALLEL,TI,"shell < TI > < 5 section points > : SNEG, (fraction = -1.0)",95.8358
C:/Users/srbb21/AppData/Local/Temp/rx18_gr30001521653382.841.odb,RELAX,Increment    105: Step Time =    1.000,SHELL-1,1970,11.325,3.75,13.9887,ASSEMBLY_SHELL-1_ALLEL,TI,"shell < TI > < 5 section points > : SPOS, (fraction = 1.0)",110.644
C:/Users/srbb21/AppData/Local/Temp/rx18_gr30001521653382.841.odb,RELAX,Increment    105: Step Time =    1.000,SHELL-1,1970,11.325,3.75,13.9887,ASSEMBLY_SHELL-1_ALLEL,TI,"shell < TI > < 5 section points > : SNEG, (fraction = -1.0)",95.7033
C:/Users/srbb21/AppData/Local/Temp/rx18_gr30001521653382.841.odb,RELAX,Increment    105: Step Time =    1.000,SHELL-1,1971,11.325,4.25,13.9887,ASSEMBLY_SHELL-1_ALLEL,TI,"shell < TI > < 5 section points > : SPOS, (fraction = 1.0)",109.63
C:/Users/srbb21/AppData/Local/Temp/rx18_gr30001521653382.841.odb,RELAX,Increment    105: Step Time =    1.000,SHELL-1,1971,11.325,4.25,13.9887,ASSEMBLY_SHELL-1_ALLEL,TI,"shell < TI > < 5 section points > : SNEG, (fraction = -1.0)",95.5184
C:/Users/srbb21/AppData/Local/Temp/rx18_gr30001521653382.841.odb,RELAX,Increment    105: Step Time =    1.000,SHELL-1,1972,11.325,4.75,13.9887,ASSEMBLY_SHELL-1_ALLEL,TI,"shell < TI > < 5 section points > : SNEG, (fraction = -1.0)",95.2708
C:/Users/srbb21/AppData/Local/Temp/rx18_gr30001521653382.841.odb,RELAX,Increment    105: Step Time =    1.000,SHELL-1,1972,11.325,4.75,13.9887,ASSEMBLY_SHELL-1_ALLEL,TI,"shell < TI > < 5 section points > : SPOS, (fraction = 1.0)",108.286
C:/Users/srbb21/AppData/Local/Temp/rx18_gr30001521653382.841.odb,RELAX,Increment    105: Step Time =    1.000,SHELL-1,1973,11.325,5.25,13.9887,ASSEMBLY_SHELL-1_ALLEL,TI,"shell < TI > < 5 section points > : SPOS, (fraction = 1.0)",106.52
C:/Users/srbb21/AppData/Local/Temp/rx18_gr30001521653382.841.odb,RELAX,Increment    105: Step Time =    1.000,SHELL-1,1973,11.325,5.25,13.9887,ASSEMBLY_SHELL-1_ALLEL,TI,"shell < TI > < 5 section points > : SNEG, (fraction = -1.0)",94.9078
C:/Users/srbb21/AppData/Local/Temp/rx18_gr30001521653382.841.odb,RELAX,Increment    105: Step Time =    1.000,SHELL-1,1974,11.325,5.75,13.9887,ASSEMBLY_SHELL-1_ALLEL,TI,"shell < TI > < 5 section points > : SPOS, (fraction = 1.0)",104.242
C:/Users/srbb21/AppData/Local/Temp/rx18_gr30001521653382.841.odb,RELAX,Increment    105: Step Time =    1.000,SHELL-1,1974,11.325,5.75,13.9887,ASSEMBLY_SHELL-1_ALLEL,TI,"shell < TI > < 5 section points > : SNEG, (fraction = -1.0)",94.3292
C:/Users/srbb21/AppData/Local/Temp/rx18_gr30001521653382.841.odb,RELAX,Increment    105: Step Time =    1.000,SHELL-1,1975,11.325,6.25,13.9887,ASSEMBLY_SHELL-1_ALLEL,TI,"shell < TI > < 5 section points > : SPOS, (fraction = 1.0)",101.507
C:/Users/srbb21/AppData/Local/Temp/rx18_gr30001521653382.841.odb,RELAX,Increment    105: Step Time =    1.000,SHELL-1,1975,11.325,6.25,13.9887,ASSEMBLY_SHELL-1_ALLEL,TI,"shell < TI > < 5 section points > : SNEG, (fraction = -1.0)",93.2807
C:/Users/srbb21/AppData/Local/Temp/rx18_gr30001521653382.841.odb,RELAX,Increment    105: Step Time =    1.000,SHELL-1,1976,11.325,6.75,13.9887,ASSEMBLY_SHELL-1_ALLEL,TI,"shell < TI > < 5 section points > : SNEG, (fraction = -1.0)",91.2944
C:/Users/srbb21/AppData/Local/Temp/rx18_gr30001521653382.841.odb,RELAX,Increment    105: Step Time =    1.000,SHELL-1,1976,11.325,6.75,13.9887,ASSEMBLY_SHELL-1_ALLEL,TI,"shell < TI > < 5 section points > : SPOS, (fraction = 1.0)",98.6507
C:/Users/srbb21/AppData/Local/Temp/rx18_gr30001521653382.841.odb,RELAX,Increment    105: Step Time =    1.000,SHELL-1,1977,11.325,7.25,13.9887,ASSEMBLY_SHELL-1_ALLEL,TI,"shell < TI > < 5 section points > : SPOS, (fraction = 1.0)",96.684
C:/Users/srbb21/AppData/Local/Temp/rx18_gr30001521653382.841.odb,RELAX,Increment    105: Step Time =    1.000,SHELL-1,1977,11.325,7.25,13.9887,ASSEMBLY_SHELL-1_ALLEL,TI,"shell < TI > < 5 section points > : SNEG, (fraction = -1.0)",87.5421
C:/Users/srbb21/AppData/Local/Temp/rx18_gr30001521653382.841.odb,RELAX,Increment    105: Step Time =    1.000,SHELL-1,1978,11.325,7.75,13.9887,ASSEMBLY_SHELL-1_ALLEL,TI,"shell < TI > < 5 section points > : SPOS, (fraction = 1.0)",97.6991
C:/Users/srbb21/AppData/Local/Temp/rx18_gr30001521653382.841.odb,RELAX,Increment    105: Step Time =    1.000,SHELL-1,1978,11.325,7.75,13.9887,ASSEMBLY_SHELL-1_ALLEL,TI,"shell < TI > < 5 section points > : SNEG, (fraction = -1.0)",80.6843
C:/Users/srbb21/AppData/Local/Temp/rx18_gr30001521653382.841.odb,RELAX,Increment    105: Step Time =    1.000,SHELL-1,1979,11.325,8.25,13.9887,ASSEMBLY_SHELL-1_ALLEL,TI,"shell < TI > < 5 section points > : SPOS, (fraction = 1.0)",105.028
C:/Users/srbb21/AppData/Local/Temp/rx18_gr30001521653382.841.odb,RELAX,Increment    105: Step Time =    1.000,SHELL-1,1979,11.325,8.25,13.9887,ASSEMBLY_SHELL-1_ALLEL,TI,"shell < TI > < 5 section points > : SNEG, (fraction = -1.0)",68.9849
C:/Users/srbb21/AppData/Local/Temp/rx18_gr30001521653382.841.odb,RELAX,Increment    105: Step Time =    1.000,SHELL-1,1980,11.325,8.75,13.9887,ASSEMBLY_SHELL-1_ALLEL,TI,"shell < TI > < 5 section points > : SPOS, (fraction = 1.0)",122.094
C:/Users/srbb21/AppData/Local/Temp/rx18_gr30001521653382.841.odb,RELAX,Increment    105: Step Time =    1.000,SHELL-1,1980,11.325,8.75,13.9887,ASSEMBLY_SHELL-1_ALLEL,TI,"shell < TI > < 5 section points > : SNEG, (fraction = -1.0)",50.3461
C:/Users/srbb21/AppData/Local/Temp/rx18_gr30001521653382.841.odb,RELAX,Increment    105: Step Time =    1.000,SHELL-1,1981,11.7091,-8.75,13.6687,ASSEMBLY_SHELL-1_ALLEL,TI,"shell < TI > < 5 section points > : SNEG, (fraction = -1.0)",40.2264
C:/Users/srbb21/AppData/Local/Temp/rx18_gr30001521653382.841.odb,RELAX,Increment    105: Step Time =    1.000,SHELL-1,1981,11.7091,-8.75,13.6687,ASSEMBLY_SHELL-1_ALLEL,TI,"shell < TI > < 5 section points > : SPOS, (fraction = 1.0)",107.509
C:/Users/srbb21/AppData/Local/Temp/rx18_gr30001521653382.841.odb,RELAX,Increment    105: Step Time =    1.000,SHELL-1,1982,11.7091,-8.25,13.6687,ASSEMBLY_SHELL-1_ALLEL,TI,"shell < TI > < 5 section points > : SPOS, (fraction = 1.0)",91.0021
C:/Users/srbb21/AppData/Local/Temp/rx18_gr30001521653382.841.odb,RELAX,Increment    105: Step Time =    1.000,SHELL-1,1982,11.7091,-8.25,13.6687,ASSEMBLY_SHELL-1_ALLEL,TI,"shell < TI > < 5 section points > : SNEG, (fraction = -1.0)",59.2134
C:/Users/srbb21/AppData/Local/Temp/rx18_gr30001521653382.841.odb,RELAX,Increment    105: Step Time =    1.000,SHELL-1,1983,11.7091,-7.75,13.6687,ASSEMBLY_SHELL-1_ALLEL,TI,"shell < TI > < 5 section points > : SPOS, (fraction = 1.0)",86.2999
C:/Users/srbb21/AppData/Local/Temp/rx18_gr30001521653382.841.odb,RELAX,Increment    105: Step Time =    1.000,SHELL-1,1983,11.7091,-7.75,13.6687,ASSEMBLY_SHELL-1_ALLEL,TI,"shell < TI > < 5 section points > : SNEG, (fraction = -1.0)",69.9952
C:/Users/srbb21/AppData/Local/Temp/rx18_gr30001521653382.841.odb,RELAX,Increment    105: Step Time =    1.000,SHELL-1,1984,11.7091,-7.25,13.6687,ASSEMBLY_SHELL-1_ALLEL,TI,"shell < TI > < 5 section points > : SPOS, (fraction = 1.0)",87.6533
C:/Users/srbb21/AppData/Local/Temp/rx18_gr30001521653382.841.odb,RELAX,Increment    105: Step Time =    1.000,SHELL-1,1984,11.7091,-7.25,13.6687,ASSEMBLY_SHELL-1_ALLEL,TI,"shell < TI > < 5 section points > : SNEG, (fraction = -1.0)",75.6547
C:/Users/srbb21/AppData/Local/Temp/rx18_gr30001521653382.841.odb,RELAX,Increment    105: Step Time =    1.000,SHELL-1,1985,11.7091,-6.75,13.6687,ASSEMBLY_SHELL-1_ALLEL,TI,"shell < TI > < 5 section points > : SNEG, (fraction = -1.0)",78.5471
C:/Users/srbb21/AppData/Local/Temp/rx18_gr30001521653382.841.odb,RELAX,Increment    105: Step Time =    1.000,SHELL-1,1985,11.7091,-6.75,13.6687,ASSEMBLY_SHELL-1_ALLEL,TI,"shell < TI > < 5 section points > : SPOS, (fraction = 1.0)",90.7578
C:/Users/srbb21/AppData/Local/Temp/rx18_gr30001521653382.841.odb,RELAX,Increment    105: Step Time =    1.000,SHELL-1,1986,11.7091,-6.25,13.6687,ASSEMBLY_SHELL-1_ALLEL,TI,"shell < TI > < 5 section points > : SPOS, (fraction = 1.0)",93.7724
C:/Users/srbb21/AppData/Local/Temp/rx18_gr30001521653382.841.odb,RELAX,Increment    105: Step Time =    1.000,SHELL-1,1986,11.7091,-6.25,13.6687,ASSEMBLY_SHELL-1_ALLEL,TI,"shell < TI > < 5 section points > : SNEG, (fraction = -1.0)",80.1168
C:/Users/srbb21/AppData/Local/Temp/rx18_gr30001521653382.841.odb,RELAX,Increment    105: Step Time =    1.000,SHELL-1,1987,11.7091,-5.75,13.6687,ASSEMBLY_SHELL-1_ALLEL,TI,"shell < TI > < 5 section points > : SPOS, (fraction = 1.0)",96.0596
C:/Users/srbb21/AppData/Local/Temp/rx18_gr30001521653382.841.odb,RELAX,Increment    105: Step Time =    1.000,SHELL-1,1987,11.7091,-5.75,13.6687,ASSEMBLY_SHELL-1_ALLEL,TI,"shell < TI > < 5 section points > : SNEG, (fraction = -1.0)",81.0833
C:/Users/srbb21/AppData/Local/Temp/rx18_gr30001521653382.841.odb,RELAX,Increment    105: Step Time =    1.000,SHELL-1,1988,11.7091,-5.25,13.6687,ASSEMBLY_SHELL-1_ALLEL,TI,"shell < TI > < 5 section points > : SPOS, (fraction = 1.0)",97.5798
C:/Users/srbb21/AppData/Local/Temp/rx18_gr30001521653382.841.odb,RELAX,Increment    105: Step Time =    1.000,SHELL-1,1988,11.7091,-5.25,13.6687,ASSEMBLY_SHELL-1_ALLEL,TI,"shell < TI > < 5 section points > : SNEG, (fraction = -1.0)",81.7989
C:/Users/srbb21/AppData/Local/Temp/rx18_gr30001521653382.841.odb,RELAX,Increment    105: Step Time =    1.000,SHELL-1,1989,11.7091,-4.75,13.6687,ASSEMBLY_SHELL-1_ALLEL,TI,"shell < TI > < 5 section points > : SNEG, (fraction = -1.0)",82.359
C:/Users/srbb21/AppData/Local/Temp/rx18_gr30001521653382.841.odb,RELAX,Increment    105: Step Time =    1.000,SHELL-1,1989,11.7091,-4.75,13.6687,ASSEMBLY_SHELL-1_ALLEL,TI,"shell < TI > < 5 section points > : SPOS, (fraction = 1.0)",98.5039
C:/Users/srbb21/AppData/Local/Temp/rx18_gr30001521653382.841.odb,RELAX,Increment    105: Step Time =    1.000,SHELL-1,1990,11.7091,-4.25,13.6687,ASSEMBLY_SHELL-1_ALLEL,TI,"shell < TI > < 5 section points > : SPOS, (fraction = 1.0)",99.0092
C:/Users/srbb21/AppData/Local/Temp/rx18_gr30001521653382.841.odb,RELAX,Increment    105: Step Time =    1.000,SHELL-1,1990,11.7091,-4.25,13.6687,ASSEMBLY_SHELL-1_ALLEL,TI,"shell < TI > < 5 section points > : SNEG, (fraction = -1.0)",82.8092
C:/Users/srbb21/AppData/Local/Temp/rx18_gr30001521653382.841.odb,RELAX,Increment    105: Step Time =    1.000,SHELL-1,1991,11.7091,-3.75,13.6687,ASSEMBLY_SHELL-1_ALLEL,TI,"shell < TI > < 5 section points > : SPOS, (fraction = 1.0)",99.2617
C:/Users/srbb21/AppData/Local/Temp/rx18_gr30001521653382.841.odb,RELAX,Increment    105: Step Time =    1.000,SHELL-1,1991,11.7091,-3.75,13.6687,ASSEMBLY_SHELL-1_ALLEL,TI,"shell < TI > < 5 section points > : SNEG, (fraction = -1.0)",83.1479
C:/Users/srbb21/AppData/Local/Temp/rx18_gr30001521653382.841.odb,RELAX,Increment    105: Step Time =    1.000,SHELL-1,1992,11.7091,-3.25,13.6687,ASSEMBLY_SHELL-1_ALLEL,TI,"shell < TI > < 5 section points > : SPOS, (fraction = 1.0)",99.3711
C:/Users/srbb21/AppData/Local/Temp/rx18_gr30001521653382.841.odb,RELAX,Increment    105: Step Time =    1.000,SHELL-1,1992,11.7091,-3.25,13.6687,ASSEMBLY_SHELL-1_ALLEL,TI,"shell < TI > < 5 section points > : SNEG, (fraction = -1.0)",83.3876
C:/Users/srbb21/AppData/Local/Temp/rx18_gr30001521653382.841.odb,RELAX,Increment    105: Step Time =    1.000,SHELL-1,1993,11.7091,-2.75,13.6687,ASSEMBLY_SHELL-1_ALLEL,TI,"shell < TI > < 5 section points > : SNEG, (fraction = -1.0)",83.5383
C:/Users/srbb21/AppData/Local/Temp/rx18_gr30001521653382.841.odb,RELAX,Increment    105: Step Time =    1.000,SHELL-1,1993,11.7091,-2.75,13.6687,ASSEMBLY_SHELL-1_ALLEL,TI,"shell < TI > < 5 section points > : SPOS, (fraction = 1.0)",99.4129
C:/Users/srbb21/AppData/Local/Temp/rx18_gr30001521653382.841.odb,RELAX,Increment    105: Step Time =    1.000,SHELL-1,1994,11.7091,-2.25,13.6687,ASSEMBLY_SHELL-1_ALLEL,TI,"shell < TI > < 5 section points > : SPOS, (fraction = 1.0)",99.4273
C:/Users/srbb21/AppData/Local/Temp/rx18_gr30001521653382.841.odb,RELAX,Increment    105: Step Time =    1.000,SHELL-1,1994,11.7091,-2.25,13.6687,ASSEMBLY_SHELL-1_ALLEL,TI,"shell < TI > < 5 section points > : SNEG, (fraction = -1.0)",83.6203
C:/Users/srbb21/AppData/Local/Temp/rx18_gr30001521653382.841.odb,RELAX,Increment    105: Step Time =    1.000,SHELL-1,1995,11.7091,-1.75,13.6687,ASSEMBLY_SHELL-1_ALLEL,TI,"shell < TI > < 5 section points > : SPOS, (fraction = 1.0)",99.4344
C:/Users/srbb21/AppData/Local/Temp/rx18_gr30001521653382.841.odb,RELAX,Increment    105: Step Time =    1.000,SHELL-1,1995,11.7091,-1.75,13.6687,ASSEMBLY_SHELL-1_ALLEL,TI,"shell < TI > < 5 section points > : SNEG, (fraction = -1.0)",83.6535
C:/Users/srbb21/AppData/Local/Temp/rx18_gr30001521653382.841.odb,RELAX,Increment    105: Step Time =    1.000,SHELL-1,1996,11.7091,-1.25,13.6687,ASSEMBLY_SHELL-1_ALLEL,TI,"shell < TI > < 5 section points > : SPOS, (fraction = 1.0)",99.4411
C:/Users/srbb21/AppData/Local/Temp/rx18_gr30001521653382.841.odb,RELAX,Increment    105: Step Time =    1.000,SHELL-1,1996,11.7091,-1.25,13.6687,ASSEMBLY_SHELL-1_ALLEL,TI,"shell < TI > < 5 section points > : SNEG, (fraction = -1.0)",83.6585
C:/Users/srbb21/AppData/Local/Temp/rx18_gr30001521653382.841.odb,RELAX,Increment    105: Step Time =    1.000,SHELL-1,1997,11.7091,-0.75,13.6687,ASSEMBLY_SHELL-1_ALLEL,TI,"shell < TI > < 5 section points > : SPOS, (fraction = 1.0)",99.4473
C:/Users/srbb21/AppData/Local/Temp/rx18_gr30001521653382.841.odb,RELAX,Increment    105: Step Time =    1.000,SHELL-1,1997,11.7091,-0.75,13.6687,ASSEMBLY_SHELL-1_ALLEL,TI,"shell < TI > < 5 section points > : SNEG, (fraction = -1.0)",83.6518
C:/Users/srbb21/AppData/Local/Temp/rx18_gr30001521653382.841.odb,RELAX,Increment    105: Step Time =    1.000,SHELL-1,1998,11.7091,-0.25,13.6687,ASSEMBLY_SHELL-1_ALLEL,TI,"shell < TI > < 5 section points > : SNEG, (fraction = -1.0)",83.6454
C:/Users/srbb21/AppData/Local/Temp/rx18_gr30001521653382.841.odb,RELAX,Increment    105: Step Time =    1.000,SHELL-1,1998,11.7091,-0.25,13.6687,ASSEMBLY_SHELL-1_ALLEL,TI,"shell < TI > < 5 section points > : SPOS, (fraction = 1.0)",99.4513
C:/Users/srbb21/AppData/Local/Temp/rx18_gr30001521653382.841.odb,RELAX,Increment    105: Step Time =    1.000,SHELL-1,1999,11.7091,0.25,13.6687,ASSEMBLY_SHELL-1_ALLEL,TI,"shell < TI > < 5 section points > : SPOS, (fraction = 1.0)",99.4513
C:/Users/srbb21/AppData/Local/Temp/rx18_gr30001521653382.841.odb,RELAX,Increment    105: Step Time =    1.000,SHELL-1,1999,11.7091,0.25,13.6687,ASSEMBLY_SHELL-1_ALLEL,TI,"shell < TI > < 5 section points > : SNEG, (fraction = -1.0)",83.6454
C:/Users/srbb21/AppData/Local/Temp/rx18_gr30001521653382.841.odb,RELAX,Increment    105: Step Time =    1.000,SHELL-1,2000,11.7091,0.75,13.6687,ASSEMBLY_SHELL-1_ALLEL,TI,"shell < TI > < 5 section points > : SPOS, (fraction = 1.0)",99.4473
C:/Users/srbb21/AppData/Local/Temp/rx18_gr30001521653382.841.odb,RELAX,Increment    105: Step Time =    1.000,SHELL-1,2000,11.7091,0.75,13.6687,ASSEMBLY_SHELL-1_ALLEL,TI,"shell < TI > < 5 section points > : SNEG, (fraction = -1.0)",83.6518
C:/Users/srbb21/AppData/Local/Temp/rx18_gr30001521653382.841.odb,RELAX,Increment    105: Step Time =    1.000,SHELL-1,2001,11.7091,1.25,13.6687,ASSEMBLY_SHELL-1_ALLEL,TI,"shell < TI > < 5 section points > : SPOS, (fraction = 1.0)",99.4411
C:/Users/srbb21/AppData/Local/Temp/rx18_gr30001521653382.841.odb,RELAX,Increment    105: Step Time =    1.000,SHELL-1,2001,11.7091,1.25,13.6687,ASSEMBLY_SHELL-1_ALLEL,TI,"shell < TI > < 5 section points > : SNEG, (fraction = -1.0)",83.6585
C:/Users/srbb21/AppData/Local/Temp/rx18_gr30001521653382.841.odb,RELAX,Increment    105: Step Time =    1.000,SHELL-1,2002,11.7091,1.75,13.6687,ASSEMBLY_SHELL-1_ALLEL,TI,"shell < TI > < 5 section points > : SNEG, (fraction = -1.0)",83.6535
C:/Users/srbb21/AppData/Local/Temp/rx18_gr30001521653382.841.odb,RELAX,Increment    105: Step Time =    1.000,SHELL-1,2002,11.7091,1.75,13.6687,ASSEMBLY_SHELL-1_ALLEL,TI,"shell < TI > < 5 section points > : SPOS, (fraction = 1.0)",99.4344
C:/Users/srbb21/AppData/Local/Temp/rx18_gr30001521653382.841.odb,RELAX,Increment    105: Step Time =    1.000,SHELL-1,2003,11.7091,2.25,13.6687,ASSEMBLY_SHELL-1_ALLEL,TI,"shell < TI > < 5 section points > : SPOS, (fraction = 1.0)",99.4273
C:/Users/srbb21/AppData/Local/Temp/rx18_gr30001521653382.841.odb,RELAX,Increment    105: Step Time =    1.000,SHELL-1,2003,11.7091,2.25,13.6687,ASSEMBLY_SHELL-1_ALLEL,TI,"shell < TI > < 5 section points > : SNEG, (fraction = -1.0)",83.6203
C:/Users/srbb21/AppData/Local/Temp/rx18_gr30001521653382.841.odb,RELAX,Increment    105: Step Time =    1.000,SHELL-1,2004,11.7091,2.75,13.6687,ASSEMBLY_SHELL-1_ALLEL,TI,"shell < TI > < 5 section points > : SPOS, (fraction = 1.0)",99.4129
C:/Users/srbb21/AppData/Local/Temp/rx18_gr30001521653382.841.odb,RELAX,Increment    105: Step Time =    1.000,SHELL-1,2004,11.7091,2.75,13.6687,ASSEMBLY_SHELL-1_ALLEL,TI,"shell < TI > < 5 section points > : SNEG, (fraction = -1.0)",83.5383
C:/Users/srbb21/AppData/Local/Temp/rx18_gr30001521653382.841.odb,RELAX,Increment    105: Step Time =    1.000,SHELL-1,2005,11.7091,3.25,13.6687,ASSEMBLY_SHELL-1_ALLEL,TI,"shell < TI > < 5 section points > : SPOS, (fraction = 1.0)",99.3711
C:/Users/srbb21/AppData/Local/Temp/rx18_gr30001521653382.841.odb,RELAX,Increment    105: Step Time =    1.000,SHELL-1,2005,11.7091,3.25,13.6687,ASSEMBLY_SHELL-1_ALLEL,TI,"shell < TI > < 5 section points > : SNEG, (fraction = -1.0)",83.3876
C:/Users/srbb21/AppData/Local/Temp/rx18_gr30001521653382.841.odb,RELAX,Increment    105: Step Time =    1.000,SHELL-1,2006,11.7091,3.75,13.6687,ASSEMBLY_SHELL-1_ALLEL,TI,"shell < TI > < 5 section points > : SNEG, (fraction = -1.0)",83.1479
C:/Users/srbb21/AppData/Local/Temp/rx18_gr30001521653382.841.odb,RELAX,Increment    105: Step Time =    1.000,SHELL-1,2006,11.7091,3.75,13.6687,ASSEMBLY_SHELL-1_ALLEL,TI,"shell < TI > < 5 section points > : SPOS, (fraction = 1.0)",99.2617
C:/Users/srbb21/AppData/Local/Temp/rx18_gr30001521653382.841.odb,RELAX,Increment    105: Step Time =    1.000,SHELL-1,2007,11.7091,4.25,13.6687,ASSEMBLY_SHELL-1_ALLEL,TI,"shell < TI > < 5 section points > : SPOS, (fraction = 1.0)",99.0092
C:/Users/srbb21/AppData/Local/Temp/rx18_gr30001521653382.841.odb,RELAX,Increment    105: Step Time =    1.000,SHELL-1,2007,11.7091,4.25,13.6687,ASSEMBLY_SHELL-1_ALLEL,TI,"shell < TI > < 5 section points > : SNEG, (fraction = -1.0)",82.8092
C:/Users/srbb21/AppData/Local/Temp/rx18_gr30001521653382.841.odb,RELAX,Increment    105: Step Time =    1.000,SHELL-1,2008,11.7091,4.75,13.6687,ASSEMBLY_SHELL-1_ALLEL,TI,"shell < TI > < 5 section points > : SPOS, (fraction = 1.0)",98.5039
C:/Users/srbb21/AppData/Local/Temp/rx18_gr30001521653382.841.odb,RELAX,Increment    105: Step Time =    1.000,SHELL-1,2008,11.7091,4.75,13.6687,ASSEMBLY_SHELL-1_ALLEL,TI,"shell < TI > < 5 section points > : SNEG, (fraction = -1.0)",82.359
C:/Users/srbb21/AppData/Local/Temp/rx18_gr30001521653382.841.odb,RELAX,Increment    105: Step Time =    1.000,SHELL-1,2009,11.7091,5.25,13.6687,ASSEMBLY_SHELL-1_ALLEL,TI,"shell < TI > < 5 section points > : SPOS, (fraction = 1.0)",97.5798
C:/Users/srbb21/AppData/Local/Temp/rx18_gr30001521653382.841.odb,RELAX,Increment    105: Step Time =    1.000,SHELL-1,2009,11.7091,5.25,13.6687,ASSEMBLY_SHELL-1_ALLEL,TI,"shell < TI > < 5 section points > : SNEG, (fraction = -1.0)",81.7989
C:/Users/srbb21/AppData/Local/Temp/rx18_gr30001521653382.841.odb,RELAX,Increment    105: Step Time =    1.000,SHELL-1,2010,11.7091,5.75,13.6687,ASSEMBLY_SHELL-1_ALLEL,TI,"shell < TI > < 5 section points > : SNEG, (fraction = -1.0)",81.0833
C:/Users/srbb21/AppData/Local/Temp/rx18_gr30001521653382.841.odb,RELAX,Increment    105: Step Time =    1.000,SHELL-1,2010,11.7091,5.75,13.6687,ASSEMBLY_SHELL-1_ALLEL,TI,"shell < TI > < 5 section points > : SPOS, (fraction = 1.0)",96.0596
C:/Users/srbb21/AppData/Local/Temp/rx18_gr30001521653382.841.odb,RELAX,Increment    105: Step Time =    1.000,SHELL-1,2011,11.7091,6.25,13.6687,ASSEMBLY_SHELL-1_ALLEL,TI,"shell < TI > < 5 section points > : SPOS, (fraction = 1.0)",93.7724
C:/Users/srbb21/AppData/Local/Temp/rx18_gr30001521653382.841.odb,RELAX,Increment    105: Step Time =    1.000,SHELL-1,2011,11.7091,6.25,13.6687,ASSEMBLY_SHELL-1_ALLEL,TI,"shell < TI > < 5 section points > : SNEG, (fraction = -1.0)",80.1168
C:/Users/srbb21/AppData/Local/Temp/rx18_gr30001521653382.841.odb,RELAX,Increment    105: Step Time =    1.000,SHELL-1,2012,11.7091,6.75,13.6687,ASSEMBLY_SHELL-1_ALLEL,TI,"shell < TI > < 5 section points > : SPOS, (fraction = 1.0)",90.7578
C:/Users/srbb21/AppData/Local/Temp/rx18_gr30001521653382.841.odb,RELAX,Increment    105: Step Time =    1.000,SHELL-1,2012,11.7091,6.75,13.6687,ASSEMBLY_SHELL-1_ALLEL,TI,"shell < TI > < 5 section points > : SNEG, (fraction = -1.0)",78.5471
C:/Users/srbb21/AppData/Local/Temp/rx18_gr30001521653382.841.odb,RELAX,Increment    105: Step Time =    1.000,SHELL-1,2013,11.7091,7.25,13.6687,ASSEMBLY_SHELL-1_ALLEL,TI,"shell < TI > < 5 section points > : SPOS, (fraction = 1.0)",87.6533
C:/Users/srbb21/AppData/Local/Temp/rx18_gr30001521653382.841.odb,RELAX,Increment    105: Step Time =    1.000,SHELL-1,2013,11.7091,7.25,13.6687,ASSEMBLY_SHELL-1_ALLEL,TI,"shell < TI > < 5 section points > : SNEG, (fraction = -1.0)",75.6547
C:/Users/srbb21/AppData/Local/Temp/rx18_gr30001521653382.841.odb,RELAX,Increment    105: Step Time =    1.000,SHELL-1,2014,11.7091,7.75,13.6687,ASSEMBLY_SHELL-1_ALLEL,TI,"shell < TI > < 5 section points > : SNEG, (fraction = -1.0)",69.9952
C:/Users/srbb21/AppData/Local/Temp/rx18_gr30001521653382.841.odb,RELAX,Increment    105: Step Time =    1.000,SHELL-1,2014,11.7091,7.75,13.6687,ASSEMBLY_SHELL-1_ALLEL,TI,"shell < TI > < 5 section points > : SPOS, (fraction = 1.0)",86.2999
C:/Users/srbb21/AppData/Local/Temp/rx18_gr30001521653382.841.odb,RELAX,Increment    105: Step Time =    1.000,SHELL-1,2015,11.7091,8.25,13.6687,ASSEMBLY_SHELL-1_ALLEL,TI,"shell < TI > < 5 section points > : SPOS, (fraction = 1.0)",91.0021
C:/Users/srbb21/AppData/Local/Temp/rx18_gr30001521653382.841.odb,RELAX,Increment    105: Step Time =    1.000,SHELL-1,2015,11.7091,8.25,13.6687,ASSEMBLY_SHELL-1_ALLEL,TI,"shell < TI > < 5 section points > : SNEG, (fraction = -1.0)",59.2134
C:/Users/srbb21/AppData/Local/Temp/rx18_gr30001521653382.841.odb,RELAX,Increment    105: Step Time =    1.000,SHELL-1,2016,11.7091,8.75,13.6687,ASSEMBLY_SHELL-1_ALLEL,TI,"shell < TI > < 5 section points > : SPOS, (fraction = 1.0)",107.509
C:/Users/srbb21/AppData/Local/Temp/rx18_gr30001521653382.841.odb,RELAX,Increment    105: Step Time =    1.000,SHELL-1,2016,11.7091,8.75,13.6687,ASSEMBLY_SHELL-1_ALLEL,TI,"shell < TI > < 5 section points > : SNEG, (fraction = -1.0)",40.2264
C:/Users/srbb21/AppData/Local/Temp/rx18_gr30001521653382.841.odb,RELAX,Increment    105: Step Time =    1.000,SHELL-1,2017,12.0842,-8.75,13.3382,ASSEMBLY_SHELL-1_ALLEL,TI,"shell < TI > < 5 section points > : SPOS, (fraction = 1.0)",87.8309
C:/Users/srbb21/AppData/Local/Temp/rx18_gr30001521653382.841.odb,RELAX,Increment    105: Step Time =    1.000,SHELL-1,2017,12.0842,-8.75,13.3382,ASSEMBLY_SHELL-1_ALLEL,TI,"shell < TI > < 5 section points > : SNEG, (fraction = -1.0)",30.1173
C:/Users/srbb21/AppData/Local/Temp/rx18_gr30001521653382.841.odb,RELAX,Increment    105: Step Time =    1.000,SHELL-1,2018,12.0842,-8.25,13.3382,ASSEMBLY_SHELL-1_ALLEL,TI,"shell < TI > < 5 section points > : SNEG, (fraction = -1.0)",48.4681
C:/Users/srbb21/AppData/Local/Temp/rx18_gr30001521653382.841.odb,RELAX,Increment    105: Step Time =    1.000,SHELL-1,2018,12.0842,-8.25,13.3382,ASSEMBLY_SHELL-1_ALLEL,TI,"shell < TI > < 5 section points > : SPOS, (fraction = 1.0)",74.669
C:/Users/srbb21/AppData/Local/Temp/rx18_gr30001521653382.841.odb,RELAX,Increment    105: Step Time =    1.000,SHELL-1,2019,12.0842,-7.75,13.3382,ASSEMBLY_SHELL-1_ALLEL,TI,"shell < TI > < 5 section points > : SPOS, (fraction = 1.0)",74.2167
C:/Users/srbb21/AppData/Local/Temp/rx18_gr30001521653382.841.odb,RELAX,Increment    105: Step Time =    1.000,SHELL-1,2019,12.0842,-7.75,13.3382,ASSEMBLY_SHELL-1_ALLEL,TI,"shell < TI > < 5 section points > : SNEG, (fraction = -1.0)",57.6321
C:/Users/srbb21/AppData/Local/Temp/rx18_gr30001521653382.841.odb,RELAX,Increment    105: Step Time =    1.000,SHELL-1,2020,12.0842,-7.25,13.3382,ASSEMBLY_SHELL-1_ALLEL,TI,"shell < TI > < 5 section points > : SPOS, (fraction = 1.0)",77.6305
C:/Users/srbb21/AppData/Local/Temp/rx18_gr30001521653382.841.odb,RELAX,Increment    105: Step Time =    1.000,SHELL-1,2020,12.0842,-7.25,13.3382,ASSEMBLY_SHELL-1_ALLEL,TI,"shell < TI > < 5 section points > : SNEG, (fraction = -1.0)",62.1778
C:/Users/srbb21/AppData/Local/Temp/rx18_gr30001521653382.841.odb,RELAX,Increment    105: Step Time =    1.000,SHELL-1,2021,12.0842,-6.75,13.3382,ASSEMBLY_SHELL-1_ALLEL,TI,"shell < TI > < 5 section points > : SPOS, (fraction = 1.0)",81.0169
C:/Users/srbb21/AppData/Local/Temp/rx18_gr30001521653382.841.odb,RELAX,Increment    105: Step Time =    1.000,SHELL-1,2021,12.0842,-6.75,13.3382,ASSEMBLY_SHELL-1_ALLEL,TI,"shell < TI > < 5 section points > : SNEG, (fraction = -1.0)",64.8751
C:/Users/srbb21/AppData/Local/Temp/rx18_gr30001521653382.841.odb,RELAX,Increment    105: Step Time =    1.000,SHELL-1,2022,12.0842,-6.25,13.3382,ASSEMBLY_SHELL-1_ALLEL,TI,"shell < TI > < 5 section points > : SNEG, (fraction = -1.0)",66.944
C:/Users/srbb21/AppData/Local/Temp/rx18_gr30001521653382.841.odb,RELAX,Increment    105: Step Time =    1.000,SHELL-1,2022,12.0842,-6.25,13.3382,ASSEMBLY_SHELL-1_ALLEL,TI,"shell < TI > < 5 section points > : SPOS, (fraction = 1.0)",83.3137
C:/Users/srbb21/AppData/Local/Temp/rx18_gr30001521653382.841.odb,RELAX,Increment    105: Step Time =    1.000,SHELL-1,2023,12.0842,-5.75,13.3382,ASSEMBLY_SHELL-1_ALLEL,TI,"shell < TI > < 5 section points > : SPOS, (fraction = 1.0)",84.4663
C:/Users/srbb21/AppData/Local/Temp/rx18_gr30001521653382.841.odb,RELAX,Increment    105: Step Time =    1.000,SHELL-1,2023,12.0842,-5.75,13.3382,ASSEMBLY_SHELL-1_ALLEL,TI,"shell < TI > < 5 section points > : SNEG, (fraction = -1.0)",68.79
C:/Users/srbb21/AppData/Local/Temp/rx18_gr30001521653382.841.odb,RELAX,Increment    105: Step Time =    1.000,SHELL-1,2024,12.0842,-5.25,13.3382,ASSEMBLY_SHELL-1_ALLEL,TI,"shell < TI > < 5 section points > : SPOS, (fraction = 1.0)",84.7978
C:/Users/srbb21/AppData/Local/Temp/rx18_gr30001521653382.841.odb,RELAX,Increment    105: Step Time =    1.000,SHELL-1,2024,12.0842,-5.25,13.3382,ASSEMBLY_SHELL-1_ALLEL,TI,"shell < TI > < 5 section points > : SNEG, (fraction = -1.0)",70.4002
C:/Users/srbb21/AppData/Local/Temp/rx18_gr30001521653382.841.odb,RELAX,Increment    105: Step Time =    1.000,SHELL-1,2025,12.0842,-4.75,13.3382,ASSEMBLY_SHELL-1_ALLEL,TI,"shell < TI > < 5 section points > : SPOS, (fraction = 1.0)",84.5817
C:/Users/srbb21/AppData/Local/Temp/rx18_gr30001521653382.841.odb,RELAX,Increment    105: Step Time =    1.000,SHELL-1,2025,12.0842,-4.75,13.3382,ASSEMBLY_SHELL-1_ALLEL,TI,"shell < TI > < 5 section points > : SNEG, (fraction = -1.0)",71.7357
C:/Users/srbb21/AppData/Local/Temp/rx18_gr30001521653382.841.odb,RELAX,Increment    105: Step Time =    1.000,SHELL-1,2026,12.0842,-4.25,13.3382,ASSEMBLY_SHELL-1_ALLEL,TI,"shell < TI > < 5 section points > : SNEG, (fraction = -1.0)",72.7603
C:/Users/srbb21/AppData/Local/Temp/rx18_gr30001521653382.841.odb,RELAX,Increment    105: Step Time =    1.000,SHELL-1,2026,12.0842,-4.25,13.3382,ASSEMBLY_SHELL-1_ALLEL,TI,"shell < TI > < 5 section points > : SPOS, (fraction = 1.0)",84.08
C:/Users/srbb21/AppData/Local/Temp/rx18_gr30001521653382.841.odb,RELAX,Increment    105: Step Time =    1.000,SHELL-1,2027,12.0842,-3.75,13.3382,ASSEMBLY_SHELL-1_ALLEL,TI,"shell < TI > < 5 section points > : SPOS, (fraction = 1.0)",83.4616
C:/Users/srbb21/AppData/Local/Temp/rx18_gr30001521653382.841.odb,RELAX,Increment    105: Step Time =    1.000,SHELL-1,2027,12.0842,-3.75,13.3382,ASSEMBLY_SHELL-1_ALLEL,TI,"shell < TI > < 5 section points > : SNEG, (fraction = -1.0)",73.4909
C:/Users/srbb21/AppData/Local/Temp/rx18_gr30001521653382.841.odb,RELAX,Increment    105: Step Time =    1.000,SHELL-1,2028,12.0842,-3.25,13.3382,ASSEMBLY_SHELL-1_ALLEL,TI,"shell < TI > < 5 section points > : SPOS, (fraction = 1.0)",82.8445
C:/Users/srbb21/AppData/Local/Temp/rx18_gr30001521653382.841.odb,RELAX,Increment    105: Step Time =    1.000,SHELL-1,2028,12.0842,-3.25,13.3382,ASSEMBLY_SHELL-1_ALLEL,TI,"shell < TI > < 5 section points > : SNEG, (fraction = -1.0)",73.9661
C:/Users/srbb21/AppData/Local/Temp/rx18_gr30001521653382.841.odb,RELAX,Increment    105: Step Time =    1.000,SHELL-1,2029,12.0842,-2.75,13.3382,ASSEMBLY_SHELL-1_ALLEL,TI,"shell < TI > < 5 section points > : SPOS, (fraction = 1.0)",82.2931
C:/Users/srbb21/AppData/Local/Temp/rx18_gr30001521653382.841.odb,RELAX,Increment    105: Step Time =    1.000,SHELL-1,2029,12.0842,-2.75,13.3382,ASSEMBLY_SHELL-1_ALLEL,TI,"shell < TI > < 5 section points > : SNEG, (fraction = -1.0)",74.2414
C:/Users/srbb21/AppData/Local/Temp/rx18_gr30001521653382.841.odb,RELAX,Increment    105: Step Time =    1.000,SHELL-1,2030,12.0842,-2.25,13.3382,ASSEMBLY_SHELL-1_ALLEL,TI,"shell < TI > < 5 section points > : SPOS, (fraction = 1.0)",81.8375
C:/Users/srbb21/AppData/Local/Temp/rx18_gr30001521653382.841.odb,RELAX,Increment    105: Step Time =    1.000,SHELL-1,2030,12.0842,-2.25,13.3382,ASSEMBLY_SHELL-1_ALLEL,TI,"shell < TI > < 5 section points > : SNEG, (fraction = -1.0)",74.3736
C:/Users/srbb21/AppData/Local/Temp/rx18_gr30001521653382.841.odb,RELAX,Increment    105: Step Time =    1.000,SHELL-1,2031,12.0842,-1.75,13.3382,ASSEMBLY_SHELL-1_ALLEL,TI,"shell < TI > < 5 section points > : SNEG, (fraction = -1.0)",74.4141
C:/Users/srbb21/AppData/Local/Temp/rx18_gr30001521653382.841.odb,RELAX,Increment    105: Step Time =    1.000,SHELL-1,2031,12.0842,-1.75,13.3382,ASSEMBLY_SHELL-1_ALLEL,TI,"shell < TI > < 5 section points > : SPOS, (fraction = 1.0)",81.4867
C:/Users/srbb21/AppData/Local/Temp/rx18_gr30001521653382.841.odb,RELAX,Increment    105: Step Time =    1.000,SHELL-1,2032,12.0842,-1.25,13.3382,ASSEMBLY_SHELL-1_ALLEL,TI,"shell < TI > < 5 section points > : SPOS, (fraction = 1.0)",81.2354
C:/Users/srbb21/AppData/Local/Temp/rx18_gr30001521653382.841.odb,RELAX,Increment    105: Step Time =    1.000,SHELL-1,2032,12.0842,-1.25,13.3382,ASSEMBLY_SHELL-1_ALLEL,TI,"shell < TI > < 5 section points > : SNEG, (fraction = -1.0)",74.4067
C:/Users/srbb21/AppData/Local/Temp/rx18_gr30001521653382.841.odb,RELAX,Increment    105: Step Time =    1.000,SHELL-1,2033,12.0842,-0.75,13.3382,ASSEMBLY_SHELL-1_ALLEL,TI,"shell < TI > < 5 section points > : SPOS, (fraction = 1.0)",81.0756
C:/Users/srbb21/AppData/Local/Temp/rx18_gr30001521653382.841.odb,RELAX,Increment    105: Step Time =    1.000,SHELL-1,2033,12.0842,-0.75,13.3382,ASSEMBLY_SHELL-1_ALLEL,TI,"shell < TI > < 5 section points > : SNEG, (fraction = -1.0)",74.3836
C:/Users/srbb21/AppData/Local/Temp/rx18_gr30001521653382.841.odb,RELAX,Increment    105: Step Time =    1.000,SHELL-1,2034,12.0842,-0.25,13.3382,ASSEMBLY_SHELL-1_ALLEL,TI,"shell < TI > < 5 section points > : SPOS, (fraction = 1.0)",80.9981
C:/Users/srbb21/AppData/Local/Temp/rx18_gr30001521653382.841.odb,RELAX,Increment    105: Step Time =    1.000,SHELL-1,2034,12.0842,-0.25,13.3382,ASSEMBLY_SHELL-1_ALLEL,TI,"shell < TI > < 5 section points > : SNEG, (fraction = -1.0)",74.3667
C:/Users/srbb21/AppData/Local/Temp/rx18_gr30001521653382.841.odb,RELAX,Increment    105: Step Time =    1.000,SHELL-1,2035,12.0842,0.25,13.3382,ASSEMBLY_SHELL-1_ALLEL,TI,"shell < TI > < 5 section points > : SNEG, (fraction = -1.0)",74.3667
C:/Users/srbb21/AppData/Local/Temp/rx18_gr30001521653382.841.odb,RELAX,Increment    105: Step Time =    1.000,SHELL-1,2035,12.0842,0.25,13.3382,ASSEMBLY_SHELL-1_ALLEL,TI,"shell < TI > < 5 section points > : SPOS, (fraction = 1.0)",80.9981
C:/Users/srbb21/AppData/Local/Temp/rx18_gr30001521653382.841.odb,RELAX,Increment    105: Step Time =    1.000,SHELL-1,2036,12.0842,0.75,13.3382,ASSEMBLY_SHELL-1_ALLEL,TI,"shell < TI > < 5 section points > : SPOS, (fraction = 1.0)",81.0756
C:/Users/srbb21/AppData/Local/Temp/rx18_gr30001521653382.841.odb,RELAX,Increment    105: Step Time =    1.000,SHELL-1,2036,12.0842,0.75,13.3382,ASSEMBLY_SHELL-1_ALLEL,TI,"shell < TI > < 5 section points > : SNEG, (fraction = -1.0)",74.3836
C:/Users/srbb21/AppData/Local/Temp/rx18_gr30001521653382.841.odb,RELAX,Increment    105: Step Time =    1.000,SHELL-1,2037,12.0842,1.25,13.3382,ASSEMBLY_SHELL-1_ALLEL,TI,"shell < TI > < 5 section points > : SPOS, (fraction = 1.0)",81.2354
C:/Users/srbb21/AppData/Local/Temp/rx18_gr30001521653382.841.odb,RELAX,Increment    105: Step Time =    1.000,SHELL-1,2037,12.0842,1.25,13.3382,ASSEMBLY_SHELL-1_ALLEL,TI,"shell < TI > < 5 section points > : SNEG, (fraction = -1.0)",74.4067
C:/Users/srbb21/AppData/Local/Temp/rx18_gr30001521653382.841.odb,RELAX,Increment    105: Step Time =    1.000,SHELL-1,2038,12.0842,1.75,13.3382,ASSEMBLY_SHELL-1_ALLEL,TI,"shell < TI > < 5 section points > : SPOS, (fraction = 1.0)",81.4867
C:/Users/srbb21/AppData/Local/Temp/rx18_gr30001521653382.841.odb,RELAX,Increment    105: Step Time =    1.000,SHELL-1,2038,12.0842,1.75,13.3382,ASSEMBLY_SHELL-1_ALLEL,TI,"shell < TI > < 5 section points > : SNEG, (fraction = -1.0)",74.4141
C:/Users/srbb21/AppData/Local/Temp/rx18_gr30001521653382.841.odb,RELAX,Increment    105: Step Time =    1.000,SHELL-1,2039,12.0842,2.25,13.3382,ASSEMBLY_SHELL-1_ALLEL,TI,"shell < TI > < 5 section points > : SNEG, (fraction = -1.0)",74.3736
C:/Users/srbb21/AppData/Local/Temp/rx18_gr30001521653382.841.odb,RELAX,Increment    105: Step Time =    1.000,SHELL-1,2039,12.0842,2.25,13.3382,ASSEMBLY_SHELL-1_ALLEL,TI,"shell < TI > < 5 section points > : SPOS, (fraction = 1.0)",81.8375
C:/Users/srbb21/AppData/Local/Temp/rx18_gr30001521653382.841.odb,RELAX,Increment    105: Step Time =    1.000,SHELL-1,2040,12.0842,2.75,13.3382,ASSEMBLY_SHELL-1_ALLEL,TI,"shell < TI > < 5 section points > : SPOS, (fraction = 1.0)",82.2931
C:/Users/srbb21/AppData/Local/Temp/rx18_gr30001521653382.841.odb,RELAX,Increment    105: Step Time =    1.000,SHELL-1,2040,12.0842,2.75,13.3382,ASSEMBLY_SHELL-1_ALLEL,TI,"shell < TI > < 5 section points > : SNEG, (fraction = -1.0)",74.2414
C:/Users/srbb21/AppData/Local/Temp/rx18_gr30001521653382.841.odb,RELAX,Increment    105: Step Time =    1.000,SHELL-1,2041,12.0842,3.25,13.3382,ASSEMBLY_SHELL-1_ALLEL,TI,"shell < TI > < 5 section points > : SPOS, (fraction = 1.0)",82.8445
C:/Users/srbb21/AppData/Local/Temp/rx18_gr30001521653382.841.odb,RELAX,Increment    105: Step Time =    1.000,SHELL-1,2041,12.0842,3.25,13.3382,ASSEMBLY_SHELL-1_ALLEL,TI,"shell < TI > < 5 section points > : SNEG, (fraction = -1.0)",73.9661
C:/Users/srbb21/AppData/Local/Temp/rx18_gr30001521653382.841.odb,RELAX,Increment    105: Step Time =    1.000,SHELL-1,2042,12.0842,3.75,13.3382,ASSEMBLY_SHELL-1_ALLEL,TI,"shell < TI > < 5 section points > : SPOS, (fraction = 1.0)",83.4616
C:/Users/srbb21/AppData/Local/Temp/rx18_gr30001521653382.841.odb,RELAX,Increment    105: Step Time =    1.000,SHELL-1,2042,12.0842,3.75,13.3382,ASSEMBLY_SHELL-1_ALLEL,TI,"shell < TI > < 5 section points > : SNEG, (fraction = -1.0)",73.4909
C:/Users/srbb21/AppData/Local/Temp/rx18_gr30001521653382.841.odb,RELAX,Increment    105: Step Time =    1.000,SHELL-1,2043,12.0842,4.25,13.3382,ASSEMBLY_SHELL-1_ALLEL,TI,"shell < TI > < 5 section points > : SNEG, (fraction = -1.0)",72.7603
C:/Users/srbb21/AppData/Local/Temp/rx18_gr30001521653382.841.odb,RELAX,Increment    105: Step Time =    1.000,SHELL-1,2043,12.0842,4.25,13.3382,ASSEMBLY_SHELL-1_ALLEL,TI,"shell < TI > < 5 section points > : SPOS, (fraction = 1.0)",84.08
C:/Users/srbb21/AppData/Local/Temp/rx18_gr30001521653382.841.odb,RELAX,Increment    105: Step Time =    1.000,SHELL-1,2044,12.0842,4.75,13.3382,ASSEMBLY_SHELL-1_ALLEL,TI,"shell < TI > < 5 section points > : SPOS, (fraction = 1.0)",84.5817
C:/Users/srbb21/AppData/Local/Temp/rx18_gr30001521653382.841.odb,RELAX,Increment    105: Step Time =    1.000,SHELL-1,2044,12.0842,4.75,13.3382,ASSEMBLY_SHELL-1_ALLEL,TI,"shell < TI > < 5 section points > : SNEG, (fraction = -1.0)",71.7357
C:/Users/srbb21/AppData/Local/Temp/rx18_gr30001521653382.841.odb,RELAX,Increment    105: Step Time =    1.000,SHELL-1,2045,12.0842,5.25,13.3382,ASSEMBLY_SHELL-1_ALLEL,TI,"shell < TI > < 5 section points > : SPOS, (fraction = 1.0)",84.7978
C:/Users/srbb21/AppData/Local/Temp/rx18_gr30001521653382.841.odb,RELAX,Increment    105: Step Time =    1.000,SHELL-1,2045,12.0842,5.25,13.3382,ASSEMBLY_SHELL-1_ALLEL,TI,"shell < TI > < 5 section points > : SNEG, (fraction = -1.0)",70.4002
C:/Users/srbb21/AppData/Local/Temp/rx18_gr30001521653382.841.odb,RELAX,Increment    105: Step Time =    1.000,SHELL-1,2046,12.0842,5.75,13.3382,ASSEMBLY_SHELL-1_ALLEL,TI,"shell < TI > < 5 section points > : SPOS, (fraction = 1.0)",84.4663
C:/Users/srbb21/AppData/Local/Temp/rx18_gr30001521653382.841.odb,RELAX,Increment    105: Step Time =    1.000,SHELL-1,2046,12.0842,5.75,13.3382,ASSEMBLY_SHELL-1_ALLEL,TI,"shell < TI > < 5 section points > : SNEG, (fraction = -1.0)",68.79
C:/Users/srbb21/AppData/Local/Temp/rx18_gr30001521653382.841.odb,RELAX,Increment    105: Step Time =    1.000,SHELL-1,2047,12.0842,6.25,13.3382,ASSEMBLY_SHELL-1_ALLEL,TI,"shell < TI > < 5 section points > : SPOS, (fraction = 1.0)",83.3137
C:/Users/srbb21/AppData/Local/Temp/rx18_gr30001521653382.841.odb,RELAX,Increment    105: Step Time =    1.000,SHELL-1,2047,12.0842,6.25,13.3382,ASSEMBLY_SHELL-1_ALLEL,TI,"shell < TI > < 5 section points > : SNEG, (fraction = -1.0)",66.944
C:/Users/srbb21/AppData/Local/Temp/rx18_gr30001521653382.841.odb,RELAX,Increment    105: Step Time =    1.000,SHELL-1,2048,12.0842,6.75,13.3382,ASSEMBLY_SHELL-1_ALLEL,TI,"shell < TI > < 5 section points > : SNEG, (fraction = -1.0)",64.8751
C:/Users/srbb21/AppData/Local/Temp/rx18_gr30001521653382.841.odb,RELAX,Increment    105: Step Time =    1.000,SHELL-1,2048,12.0842,6.75,13.3382,ASSEMBLY_SHELL-1_ALLEL,TI,"shell < TI > < 5 section points > : SPOS, (fraction = 1.0)",81.0169
C:/Users/srbb21/AppData/Local/Temp/rx18_gr30001521653382.841.odb,RELAX,Increment    105: Step Time =    1.000,SHELL-1,2049,12.0842,7.25,13.3382,ASSEMBLY_SHELL-1_ALLEL,TI,"shell < TI > < 5 section points > : SPOS, (fraction = 1.0)",77.6305
C:/Users/srbb21/AppData/Local/Temp/rx18_gr30001521653382.841.odb,RELAX,Increment    105: Step Time =    1.000,SHELL-1,2049,12.0842,7.25,13.3382,ASSEMBLY_SHELL-1_ALLEL,TI,"shell < TI > < 5 section points > : SNEG, (fraction = -1.0)",62.1778
C:/Users/srbb21/AppData/Local/Temp/rx18_gr30001521653382.841.odb,RELAX,Increment    105: Step Time =    1.000,SHELL-1,2050,12.0842,7.75,13.3382,ASSEMBLY_SHELL-1_ALLEL,TI,"shell < TI > < 5 section points > : SPOS, (fraction = 1.0)",74.2167
C:/Users/srbb21/AppData/Local/Temp/rx18_gr30001521653382.841.odb,RELAX,Increment    105: Step Time =    1.000,SHELL-1,2050,12.0842,7.75,13.3382,ASSEMBLY_SHELL-1_ALLEL,TI,"shell < TI > < 5 section points > : SNEG, (fraction = -1.0)",57.6321
C:/Users/srbb21/AppData/Local/Temp/rx18_gr30001521653382.841.odb,RELAX,Increment    105: Step Time =    1.000,SHELL-1,2051,12.0842,8.25,13.3382,ASSEMBLY_SHELL-1_ALLEL,TI,"shell < TI > < 5 section points > : SPOS, (fraction = 1.0)",74.669
C:/Users/srbb21/AppData/Local/Temp/rx18_gr30001521653382.841.odb,RELAX,Increment    105: Step Time =    1.000,SHELL-1,2051,12.0842,8.25,13.3382,ASSEMBLY_SHELL-1_ALLEL,TI,"shell < TI > < 5 section points > : SNEG, (fraction = -1.0)",48.4681
C:/Users/srbb21/AppData/Local/Temp/rx18_gr30001521653382.841.odb,RELAX,Increment    105: Step Time =    1.000,SHELL-1,2052,12.0842,8.75,13.3382,ASSEMBLY_SHELL-1_ALLEL,TI,"shell < TI > < 5 section points > : SNEG, (fraction = -1.0)",30.1173
C:/Users/srbb21/AppData/Local/Temp/rx18_gr30001521653382.841.odb,RELAX,Increment    105: Step Time =    1.000,SHELL-1,2052,12.0842,8.75,13.3382,ASSEMBLY_SHELL-1_ALLEL,TI,"shell < TI > < 5 section points > : SPOS, (fraction = 1.0)",87.8309
C:/Users/srbb21/AppData/Local/Temp/rx18_gr30001521653382.841.odb,RELAX,Increment    105: Step Time =    1.000,SHELL-1,2053,12.45,-8.75,12.9975,ASSEMBLY_SHELL-1_ALLEL,TI,"shell < TI > < 5 section points > : SPOS, (fraction = 1.0)",63.4714
C:/Users/srbb21/AppData/Local/Temp/rx18_gr30001521653382.841.odb,RELAX,Increment    105: Step Time =    1.000,SHELL-1,2053,12.45,-8.75,12.9975,ASSEMBLY_SHELL-1_ALLEL,TI,"shell < TI > < 5 section points > : SNEG, (fraction = -1.0)",21.2265
C:/Users/srbb21/AppData/Local/Temp/rx18_gr30001521653382.841.odb,RELAX,Increment    105: Step Time =    1.000,SHELL-1,2054,12.45,-8.25,12.9975,ASSEMBLY_SHELL-1_ALLEL,TI,"shell < TI > < 5 section points > : SPOS, (fraction = 1.0)",57.6684
C:/Users/srbb21/AppData/Local/Temp/rx18_gr30001521653382.841.odb,RELAX,Increment    105: Step Time =    1.000,SHELL-1,2054,12.45,-8.25,12.9975,ASSEMBLY_SHELL-1_ALLEL,TI,"shell < TI > < 5 section points > : SNEG, (fraction = -1.0)",37.4804
C:/Users/srbb21/AppData/Local/Temp/rx18_gr30001521653382.841.odb,RELAX,Increment    105: Step Time =    1.000,SHELL-1,2055,12.45,-7.75,12.9975,ASSEMBLY_SHELL-1_ALLEL,TI,"shell < TI > < 5 section points > : SPOS, (fraction = 1.0)",61.378
C:/Users/srbb21/AppData/Local/Temp/rx18_gr30001521653382.841.odb,RELAX,Increment    105: Step Time =    1.000,SHELL-1,2055,12.45,-7.75,12.9975,ASSEMBLY_SHELL-1_ALLEL,TI,"shell < TI > < 5 section points > : SNEG, (fraction = -1.0)",44.8475
C:/Users/srbb21/AppData/Local/Temp/rx18_gr30001521653382.841.odb,RELAX,Increment    105: Step Time =    1.000,SHELL-1,2056,12.45,-7.25,12.9975,ASSEMBLY_SHELL-1_ALLEL,TI,"shell < TI > < 5 section points > : SNEG, (fraction = -1.0)",49.6787
C:/Users/srbb21/AppData/Local/Temp/rx18_gr30001521653382.841.odb,RELAX,Increment    105: Step Time =    1.000,SHELL-1,2056,12.45,-7.25,12.9975,ASSEMBLY_SHELL-1_ALLEL,TI,"shell < TI > < 5 section points > : SPOS, (fraction = 1.0)",65.3187
C:/Users/srbb21/AppData/Local/Temp/rx18_gr30001521653382.841.odb,RELAX,Increment    105: Step Time =    1.000,SHELL-1,2057,12.45,-6.75,12.9975,ASSEMBLY_SHELL-1_ALLEL,TI,"shell < TI > < 5 section points > : SPOS, (fraction = 1.0)",67.5953
C:/Users/srbb21/AppData/Local/Temp/rx18_gr30001521653382.841.odb,RELAX,Increment    105: Step Time =    1.000,SHELL-1,2057,12.45,-6.75,12.9975,ASSEMBLY_SHELL-1_ALLEL,TI,"shell < TI > < 5 section points > : SNEG, (fraction = -1.0)",54.3643
C:/Users/srbb21/AppData/Local/Temp/rx18_gr30001521653382.841.odb,RELAX,Increment    105: Step Time =    1.000,SHELL-1,2058,12.45,-6.25,12.9975,ASSEMBLY_SHELL-1_ALLEL,TI,"shell < TI > < 5 section points > : SPOS, (fraction = 1.0)",68.3027
C:/Users/srbb21/AppData/Local/Temp/rx18_gr30001521653382.841.odb,RELAX,Increment    105: Step Time =    1.000,SHELL-1,2058,12.45,-6.25,12.9975,ASSEMBLY_SHELL-1_ALLEL,TI,"shell < TI > < 5 section points > : SNEG, (fraction = -1.0)",59.1339
C:/Users/srbb21/AppData/Local/Temp/rx18_gr30001521653382.841.odb,RELAX,Increment    105: Step Time =    1.000,SHELL-1,2059,12.45,-5.75,12.9975,ASSEMBLY_SHELL-1_ALLEL,TI,"shell < TI > < 5 section points > : SPOS, (fraction = 1.0)",67.9689
C:/Users/srbb21/AppData/Local/Temp/rx18_gr30001521653382.841.odb,RELAX,Increment    105: Step Time =    1.000,SHELL-1,2059,12.45,-5.75,12.9975,ASSEMBLY_SHELL-1_ALLEL,TI,"shell < TI > < 5 section points > : SNEG, (fraction = -1.0)",63.4738
C:/Users/srbb21/AppData/Local/Temp/rx18_gr30001521653382.841.odb,RELAX,Increment    105: Step Time =    1.000,SHELL-1,2060,12.45,-5.25,12.9975,ASSEMBLY_SHELL-1_ALLEL,TI,"shell < TI > < 5 section points > : SNEG, (fraction = -1.0)",67.0785
C:/Users/srbb21/AppData/Local/Temp/rx18_gr30001521653382.841.odb,RELAX,Increment    105: Step Time =    1.000,SHELL-1,2060,12.45,-5.25,12.9975,ASSEMBLY_SHELL-1_ALLEL,TI,"shell < TI > < 5 section points > : SPOS, (fraction = 1.0)",66.9704
C:/Users/srbb21/AppData/Local/Temp/rx18_gr30001521653382.841.odb,RELAX,Increment    105: Step Time =    1.000,SHELL-1,2061,12.45,-4.75,12.9975,ASSEMBLY_SHELL-1_ALLEL,TI,"shell < TI > < 5 section points > : SPOS, (fraction = 1.0)",65.6447
C:/Users/srbb21/AppData/Local/Temp/rx18_gr30001521653382.841.odb,RELAX,Increment    105: Step Time =    1.000,SHELL-1,2061,12.45,-4.75,12.9975,ASSEMBLY_SHELL-1_ALLEL,TI,"shell < TI > < 5 section points > : SNEG, (fraction = -1.0)",69.8447
C:/Users/srbb21/AppData/Local/Temp/rx18_gr30001521653382.841.odb,RELAX,Increment    105: Step Time =    1.000,SHELL-1,2062,12.45,-4.25,12.9975,ASSEMBLY_SHELL-1_ALLEL,TI,"shell < TI > < 5 section points > : SPOS, (fraction = 1.0)",64.2119
C:/Users/srbb21/AppData/Local/Temp/rx18_gr30001521653382.841.odb,RELAX,Increment    105: Step Time =    1.000,SHELL-1,2062,12.45,-4.25,12.9975,ASSEMBLY_SHELL-1_ALLEL,TI,"shell < TI > < 5 section points > : SNEG, (fraction = -1.0)",71.8315
C:/Users/srbb21/AppData/Local/Temp/rx18_gr30001521653382.841.odb,RELAX,Increment    105: Step Time =    1.000,SHELL-1,2063,12.45,-3.75,12.9975,ASSEMBLY_SHELL-1_ALLEL,TI,"shell < TI > < 5 section points > : SPOS, (fraction = 1.0)",62.8273
C:/Users/srbb21/AppData/Local/Temp/rx18_gr30001521653382.841.odb,RELAX,Increment    105: Step Time =    1.000,SHELL-1,2063,12.45,-3.75,12.9975,ASSEMBLY_SHELL-1_ALLEL,TI,"shell < TI > < 5 section points > : SNEG, (fraction = -1.0)",73.1644
C:/Users/srbb21/AppData/Local/Temp/rx18_gr30001521653382.841.odb,RELAX,Increment    105: Step Time =    1.000,SHELL-1,2064,12.45,-3.25,12.9975,ASSEMBLY_SHELL-1_ALLEL,TI,"shell < TI > < 5 section points > : SPOS, (fraction = 1.0)",61.5844
C:/Users/srbb21/AppData/Local/Temp/rx18_gr30001521653382.841.odb,RELAX,Increment    105: Step Time =    1.000,SHELL-1,2064,12.45,-3.25,12.9975,ASSEMBLY_SHELL-1_ALLEL,TI,"shell < TI > < 5 section points > : SNEG, (fraction = -1.0)",73.9886
C:/Users/srbb21/AppData/Local/Temp/rx18_gr30001521653382.841.odb,RELAX,Increment    105: Step Time =    1.000,SHELL-1,2065,12.45,-2.75,12.9975,ASSEMBLY_SHELL-1_ALLEL,TI,"shell < TI > < 5 section points > : SNEG, (fraction = -1.0)",74.4442
C:/Users/srbb21/AppData/Local/Temp/rx18_gr30001521653382.841.odb,RELAX,Increment    105: Step Time =    1.000,SHELL-1,2065,12.45,-2.75,12.9975,ASSEMBLY_SHELL-1_ALLEL,TI,"shell < TI > < 5 section points > : SPOS, (fraction = 1.0)",60.5291
C:/Users/srbb21/AppData/Local/Temp/rx18_gr30001521653382.841.odb,RELAX,Increment    105: Step Time =    1.000,SHELL-1,2066,12.45,-2.25,12.9975,ASSEMBLY_SHELL-1_ALLEL,TI,"shell < TI > < 5 section points > : SPOS, (fraction = 1.0)",59.6793
C:/Users/srbb21/AppData/Local/Temp/rx18_gr30001521653382.841.odb,RELAX,Increment    105: Step Time =    1.000,SHELL-1,2066,12.45,-2.25,12.9975,ASSEMBLY_SHELL-1_ALLEL,TI,"shell < TI > < 5 section points > : SNEG, (fraction = -1.0)",74.6502
C:/Users/srbb21/AppData/Local/Temp/rx18_gr30001521653382.841.odb,RELAX,Increment    105: Step Time =    1.000,SHELL-1,2067,12.45,-1.75,12.9975,ASSEMBLY_SHELL-1_ALLEL,TI,"shell < TI > < 5 section points > : SPOS, (fraction = 1.0)",59.0286
C:/Users/srbb21/AppData/Local/Temp/rx18_gr30001521653382.841.odb,RELAX,Increment    105: Step Time =    1.000,SHELL-1,2067,12.45,-1.75,12.9975,ASSEMBLY_SHELL-1_ALLEL,TI,"shell < TI > < 5 section points > : SNEG, (fraction = -1.0)",74.7059
C:/Users/srbb21/AppData/Local/Temp/rx18_gr30001521653382.841.odb,RELAX,Increment    105: Step Time =    1.000,SHELL-1,2068,12.45,-1.25,12.9975,ASSEMBLY_SHELL-1_ALLEL,TI,"shell < TI > < 5 section points > : SPOS, (fraction = 1.0)",58.5639
C:/Users/srbb21/AppData/Local/Temp/rx18_gr30001521653382.841.odb,RELAX,Increment    105: Step Time =    1.000,SHELL-1,2068,12.45,-1.25,12.9975,ASSEMBLY_SHELL-1_ALLEL,TI,"shell < TI > < 5 section points > : SNEG, (fraction = -1.0)",74.6852
C:/Users/srbb21/AppData/Local/Temp/rx18_gr30001521653382.841.odb,RELAX,Increment    105: Step Time =    1.000,SHELL-1,2069,12.45,-0.75,12.9975,ASSEMBLY_SHELL-1_ALLEL,TI,"shell < TI > < 5 section points > : SNEG, (fraction = -1.0)",74.643
C:/Users/srbb21/AppData/Local/Temp/rx18_gr30001521653382.841.odb,RELAX,Increment    105: Step Time =    1.000,SHELL-1,2069,12.45,-0.75,12.9975,ASSEMBLY_SHELL-1_ALLEL,TI,"shell < TI > < 5 section points > : SPOS, (fraction = 1.0)",58.2661
C:/Users/srbb21/AppData/Local/Temp/rx18_gr30001521653382.841.odb,RELAX,Increment    105: Step Time =    1.000,SHELL-1,2070,12.45,-0.25,12.9975,ASSEMBLY_SHELL-1_ALLEL,TI,"shell < TI > < 5 section points > : SPOS, (fraction = 1.0)",58.1216
C:/Users/srbb21/AppData/Local/Temp/rx18_gr30001521653382.841.odb,RELAX,Increment    105: Step Time =    1.000,SHELL-1,2070,12.45,-0.25,12.9975,ASSEMBLY_SHELL-1_ALLEL,TI,"shell < TI > < 5 section points > : SNEG, (fraction = -1.0)",74.6133
C:/Users/srbb21/AppData/Local/Temp/rx18_gr30001521653382.841.odb,RELAX,Increment    105: Step Time =    1.000,SHELL-1,2071,12.45,0.25,12.9975,ASSEMBLY_SHELL-1_ALLEL,TI,"shell < TI > < 5 section points > : SPOS, (fraction = 1.0)",58.1216
C:/Users/srbb21/AppData/Local/Temp/rx18_gr30001521653382.841.odb,RELAX,Increment    105: Step Time =    1.000,SHELL-1,2071,12.45,0.25,12.9975,ASSEMBLY_SHELL-1_ALLEL,TI,"shell < TI > < 5 section points > : SNEG, (fraction = -1.0)",74.6133
C:/Users/srbb21/AppData/Local/Temp/rx18_gr30001521653382.841.odb,RELAX,Increment    105: Step Time =    1.000,SHELL-1,2072,12.45,0.75,12.9975,ASSEMBLY_SHELL-1_ALLEL,TI,"shell < TI > < 5 section points > : SPOS, (fraction = 1.0)",58.2661
C:/Users/srbb21/AppData/Local/Temp/rx18_gr30001521653382.841.odb,RELAX,Increment    105: Step Time =    1.000,SHELL-1,2072,12.45,0.75,12.9975,ASSEMBLY_SHELL-1_ALLEL,TI,"shell < TI > < 5 section points > : SNEG, (fraction = -1.0)",74.643
C:/Users/srbb21/AppData/Local/Temp/rx18_gr30001521653382.841.odb,RELAX,Increment    105: Step Time =    1.000,SHELL-1,2073,12.45,1.25,12.9975,ASSEMBLY_SHELL-1_ALLEL,TI,"shell < TI > < 5 section points > : SNEG, (fraction = -1.0)",74.6852
C:/Users/srbb21/AppData/Local/Temp/rx18_gr30001521653382.841.odb,RELAX,Increment    105: Step Time =    1.000,SHELL-1,2073,12.45,1.25,12.9975,ASSEMBLY_SHELL-1_ALLEL,TI,"shell < TI > < 5 section points > : SPOS, (fraction = 1.0)",58.5639
C:/Users/srbb21/AppData/Local/Temp/rx18_gr30001521653382.841.odb,RELAX,Increment    105: Step Time =    1.000,SHELL-1,2074,12.45,1.75,12.9975,ASSEMBLY_SHELL-1_ALLEL,TI,"shell < TI > < 5 section points > : SPOS, (fraction = 1.0)",59.0286
C:/Users/srbb21/AppData/Local/Temp/rx18_gr30001521653382.841.odb,RELAX,Increment    105: Step Time =    1.000,SHELL-1,2074,12.45,1.75,12.9975,ASSEMBLY_SHELL-1_ALLEL,TI,"shell < TI > < 5 section points > : SNEG, (fraction = -1.0)",74.7059
C:/Users/srbb21/AppData/Local/Temp/rx18_gr30001521653382.841.odb,RELAX,Increment    105: Step Time =    1.000,SHELL-1,2075,12.45,2.25,12.9975,ASSEMBLY_SHELL-1_ALLEL,TI,"shell < TI > < 5 section points > : SPOS, (fraction = 1.0)",59.6793
C:/Users/srbb21/AppData/Local/Temp/rx18_gr30001521653382.841.odb,RELAX,Increment    105: Step Time =    1.000,SHELL-1,2075,12.45,2.25,12.9975,ASSEMBLY_SHELL-1_ALLEL,TI,"shell < TI > < 5 section points > : SNEG, (fraction = -1.0)",74.6502
C:/Users/srbb21/AppData/Local/Temp/rx18_gr30001521653382.841.odb,RELAX,Increment    105: Step Time =    1.000,SHELL-1,2076,12.45,2.75,12.9975,ASSEMBLY_SHELL-1_ALLEL,TI,"shell < TI > < 5 section points > : SPOS, (fraction = 1.0)",60.5291
C:/Users/srbb21/AppData/Local/Temp/rx18_gr30001521653382.841.odb,RELAX,Increment    105: Step Time =    1.000,SHELL-1,2076,12.45,2.75,12.9975,ASSEMBLY_SHELL-1_ALLEL,TI,"shell < TI > < 5 section points > : SNEG, (fraction = -1.0)",74.4442
C:/Users/srbb21/AppData/Local/Temp/rx18_gr30001521653382.841.odb,RELAX,Increment    105: Step Time =    1.000,SHELL-1,2077,12.45,3.25,12.9975,ASSEMBLY_SHELL-1_ALLEL,TI,"shell < TI > < 5 section points > : SNEG, (fraction = -1.0)",73.9886
C:/Users/srbb21/AppData/Local/Temp/rx18_gr30001521653382.841.odb,RELAX,Increment    105: Step Time =    1.000,SHELL-1,2077,12.45,3.25,12.9975,ASSEMBLY_SHELL-1_ALLEL,TI,"shell < TI > < 5 section points > : SPOS, (fraction = 1.0)",61.5844
C:/Users/srbb21/AppData/Local/Temp/rx18_gr30001521653382.841.odb,RELAX,Increment    105: Step Time =    1.000,SHELL-1,2078,12.45,3.75,12.9975,ASSEMBLY_SHELL-1_ALLEL,TI,"shell < TI > < 5 section points > : SPOS, (fraction = 1.0)",62.8273
C:/Users/srbb21/AppData/Local/Temp/rx18_gr30001521653382.841.odb,RELAX,Increment    105: Step Time =    1.000,SHELL-1,2078,12.45,3.75,12.9975,ASSEMBLY_SHELL-1_ALLEL,TI,"shell < TI > < 5 section points > : SNEG, (fraction = -1.0)",73.1644
C:/Users/srbb21/AppData/Local/Temp/rx18_gr30001521653382.841.odb,RELAX,Increment    105: Step Time =    1.000,SHELL-1,2079,12.45,4.25,12.9975,ASSEMBLY_SHELL-1_ALLEL,TI,"shell < TI > < 5 section points > : SPOS, (fraction = 1.0)",64.2119
C:/Users/srbb21/AppData/Local/Temp/rx18_gr30001521653382.841.odb,RELAX,Increment    105: Step Time =    1.000,SHELL-1,2079,12.45,4.25,12.9975,ASSEMBLY_SHELL-1_ALLEL,TI,"shell < TI > < 5 section points > : SNEG, (fraction = -1.0)",71.8315
C:/Users/srbb21/AppData/Local/Temp/rx18_gr30001521653382.841.odb,RELAX,Increment    105: Step Time =    1.000,SHELL-1,2080,12.45,4.75,12.9975,ASSEMBLY_SHELL-1_ALLEL,TI,"shell < TI > < 5 section points > : SPOS, (fraction = 1.0)",65.6447
C:/Users/srbb21/AppData/Local/Temp/rx18_gr30001521653382.841.odb,RELAX,Increment    105: Step Time =    1.000,SHELL-1,2080,12.45,4.75,12.9975,ASSEMBLY_SHELL-1_ALLEL,TI,"shell < TI > < 5 section points > : SNEG, (fraction = -1.0)",69.8447
C:/Users/srbb21/AppData/Local/Temp/rx18_gr30001521653382.841.odb,RELAX,Increment    105: Step Time =    1.000,SHELL-1,2081,12.45,5.25,12.9975,ASSEMBLY_SHELL-1_ALLEL,TI,"shell < TI > < 5 section points > : SPOS, (fraction = 1.0)",66.9704
C:/Users/srbb21/AppData/Local/Temp/rx18_gr30001521653382.841.odb,RELAX,Increment    105: Step Time =    1.000,SHELL-1,2081,12.45,5.25,12.9975,ASSEMBLY_SHELL-1_ALLEL,TI,"shell < TI > < 5 section points > : SNEG, (fraction = -1.0)",67.0785
C:/Users/srbb21/AppData/Local/Temp/rx18_gr30001521653382.841.odb,RELAX,Increment    105: Step Time =    1.000,SHELL-1,2082,12.45,5.75,12.9975,ASSEMBLY_SHELL-1_ALLEL,TI,"shell < TI > < 5 section points > : SNEG, (fraction = -1.0)",63.4738
C:/Users/srbb21/AppData/Local/Temp/rx18_gr30001521653382.841.odb,RELAX,Increment    105: Step Time =    1.000,SHELL-1,2082,12.45,5.75,12.9975,ASSEMBLY_SHELL-1_ALLEL,TI,"shell < TI > < 5 section points > : SPOS, (fraction = 1.0)",67.9689
C:/Users/srbb21/AppData/Local/Temp/rx18_gr30001521653382.841.odb,RELAX,Increment    105: Step Time =    1.000,SHELL-1,2083,12.45,6.25,12.9975,ASSEMBLY_SHELL-1_ALLEL,TI,"shell < TI > < 5 section points > : SPOS, (fraction = 1.0)",68.3027
C:/Users/srbb21/AppData/Local/Temp/rx18_gr30001521653382.841.odb,RELAX,Increment    105: Step Time =    1.000,SHELL-1,2083,12.45,6.25,12.9975,ASSEMBLY_SHELL-1_ALLEL,TI,"shell < TI > < 5 section points > : SNEG, (fraction = -1.0)",59.1339
C:/Users/srbb21/AppData/Local/Temp/rx18_gr30001521653382.841.odb,RELAX,Increment    105: Step Time =    1.000,SHELL-1,2084,12.45,6.75,12.9975,ASSEMBLY_SHELL-1_ALLEL,TI,"shell < TI > < 5 section points > : SPOS, (fraction = 1.0)",67.5953
C:/Users/srbb21/AppData/Local/Temp/rx18_gr30001521653382.841.odb,RELAX,Increment    105: Step Time =    1.000,SHELL-1,2084,12.45,6.75,12.9975,ASSEMBLY_SHELL-1_ALLEL,TI,"shell < TI > < 5 section points > : SNEG, (fraction = -1.0)",54.3643
C:/Users/srbb21/AppData/Local/Temp/rx18_gr30001521653382.841.odb,RELAX,Increment    105: Step Time =    1.000,SHELL-1,2085,12.45,7.25,12.9975,ASSEMBLY_SHELL-1_ALLEL,TI,"shell < TI > < 5 section points > : SPOS, (fraction = 1.0)",65.3187
C:/Users/srbb21/AppData/Local/Temp/rx18_gr30001521653382.841.odb,RELAX,Increment    105: Step Time =    1.000,SHELL-1,2085,12.45,7.25,12.9975,ASSEMBLY_SHELL-1_ALLEL,TI,"shell < TI > < 5 section points > : SNEG, (fraction = -1.0)",49.6787
C:/Users/srbb21/AppData/Local/Temp/rx18_gr30001521653382.841.odb,RELAX,Increment    105: Step Time =    1.000,SHELL-1,2086,12.45,7.75,12.9975,ASSEMBLY_SHELL-1_ALLEL,TI,"shell < TI > < 5 section points > : SNEG, (fraction = -1.0)",44.8475
C:/Users/srbb21/AppData/Local/Temp/rx18_gr30001521653382.841.odb,RELAX,Increment    105: Step Time =    1.000,SHELL-1,2086,12.45,7.75,12.9975,ASSEMBLY_SHELL-1_ALLEL,TI,"shell < TI > < 5 section points > : SPOS, (fraction = 1.0)",61.378
C:/Users/srbb21/AppData/Local/Temp/rx18_gr30001521653382.841.odb,RELAX,Increment    105: Step Time =    1.000,SHELL-1,2087,12.45,8.25,12.9975,ASSEMBLY_SHELL-1_ALLEL,TI,"shell < TI > < 5 section points > : SPOS, (fraction = 1.0)",57.6684
C:/Users/srbb21/AppData/Local/Temp/rx18_gr30001521653382.841.odb,RELAX,Increment    105: Step Time =    1.000,SHELL-1,2087,12.45,8.25,12.9975,ASSEMBLY_SHELL-1_ALLEL,TI,"shell < TI > < 5 section points > : SNEG, (fraction = -1.0)",37.4804
C:/Users/srbb21/AppData/Local/Temp/rx18_gr30001521653382.841.odb,RELAX,Increment    105: Step Time =    1.000,SHELL-1,2088,12.45,8.75,12.9975,ASSEMBLY_SHELL-1_ALLEL,TI,"shell < TI > < 5 section points > : SPOS, (fraction = 1.0)",63.4714
C:/Users/srbb21/AppData/Local/Temp/rx18_gr30001521653382.841.odb,RELAX,Increment    105: Step Time =    1.000,SHELL-1,2088,12.45,8.75,12.9975,ASSEMBLY_SHELL-1_ALLEL,TI,"shell < TI > < 5 section points > : SNEG, (fraction = -1.0)",21.2265
C:/Users/srbb21/AppData/Local/Temp/rx18_gr30001521653382.841.odb,RELAX,Increment    105: Step Time =    1.000,SHELL-1,2089,12.8062,-8.75,12.6467,ASSEMBLY_SHELL-1_ALLEL,TI,"shell < TI > < 5 section points > : SPOS, (fraction = 1.0)",36.8137
C:/Users/srbb21/AppData/Local/Temp/rx18_gr30001521653382.841.odb,RELAX,Increment    105: Step Time =    1.000,SHELL-1,2089,12.8062,-8.75,12.6467,ASSEMBLY_SHELL-1_ALLEL,TI,"shell < TI > < 5 section points > : SNEG, (fraction = -1.0)",14.277
C:/Users/srbb21/AppData/Local/Temp/rx18_gr30001521653382.841.odb,RELAX,Increment    105: Step Time =    1.000,SHELL-1,2090,12.8062,-8.25,12.6467,ASSEMBLY_SHELL-1_ALLEL,TI,"shell < TI > < 5 section points > : SNEG, (fraction = -1.0)",26.5936
C:/Users/srbb21/AppData/Local/Temp/rx18_gr30001521653382.841.odb,RELAX,Increment    105: Step Time =    1.000,SHELL-1,2090,12.8062,-8.25,12.6467,ASSEMBLY_SHELL-1_ALLEL,TI,"shell < TI > < 5 section points > : SPOS, (fraction = 1.0)",41.4097
C:/Users/srbb21/AppData/Local/Temp/rx18_gr30001521653382.841.odb,RELAX,Increment    105: Step Time =    1.000,SHELL-1,2091,12.8062,-7.75,12.6467,ASSEMBLY_SHELL-1_ALLEL,TI,"shell < TI > < 5 section points > : SPOS, (fraction = 1.0)",46.7442
C:/Users/srbb21/AppData/Local/Temp/rx18_gr30001521653382.841.odb,RELAX,Increment    105: Step Time =    1.000,SHELL-1,2091,12.8062,-7.75,12.6467,ASSEMBLY_SHELL-1_ALLEL,TI,"shell < TI > < 5 section points > : SNEG, (fraction = -1.0)",35.1848
C:/Users/srbb21/AppData/Local/Temp/rx18_gr30001521653382.841.odb,RELAX,Increment    105: Step Time =    1.000,SHELL-1,2092,12.8062,-7.25,12.6467,ASSEMBLY_SHELL-1_ALLEL,TI,"shell < TI > < 5 section points > : SPOS, (fraction = 1.0)",49.206
C:/Users/srbb21/AppData/Local/Temp/rx18_gr30001521653382.841.odb,RELAX,Increment    105: Step Time =    1.000,SHELL-1,2092,12.8062,-7.25,12.6467,ASSEMBLY_SHELL-1_ALLEL,TI,"shell < TI > < 5 section points > : SNEG, (fraction = -1.0)",45.6006
C:/Users/srbb21/AppData/Local/Temp/rx18_gr30001521653382.841.odb,RELAX,Increment    105: Step Time =    1.000,SHELL-1,2093,12.8062,-6.75,12.6467,ASSEMBLY_SHELL-1_ALLEL,TI,"shell < TI > < 5 section points > : SPOS, (fraction = 1.0)",49.4894
C:/Users/srbb21/AppData/Local/Temp/rx18_gr30001521653382.841.odb,RELAX,Increment    105: Step Time =    1.000,SHELL-1,2093,12.8062,-6.75,12.6467,ASSEMBLY_SHELL-1_ALLEL,TI,"shell < TI > < 5 section points > : SNEG, (fraction = -1.0)",56.4682
C:/Users/srbb21/AppData/Local/Temp/rx18_gr30001521653382.841.odb,RELAX,Increment    105: Step Time =    1.000,SHELL-1,2094,12.8062,-6.25,12.6467,ASSEMBLY_SHELL-1_ALLEL,TI,"shell < TI > < 5 section points > : SNEG, (fraction = -1.0)",66.0372
C:/Users/srbb21/AppData/Local/Temp/rx18_gr30001521653382.841.odb,RELAX,Increment    105: Step Time =    1.000,SHELL-1,2094,12.8062,-6.25,12.6467,ASSEMBLY_SHELL-1_ALLEL,TI,"shell < TI > < 5 section points > : SPOS, (fraction = 1.0)",48.5733
C:/Users/srbb21/AppData/Local/Temp/rx18_gr30001521653382.841.odb,RELAX,Increment    105: Step Time =    1.000,SHELL-1,2095,12.8062,-5.75,12.6467,ASSEMBLY_SHELL-1_ALLEL,TI,"shell < TI > < 5 section points > : SPOS, (fraction = 1.0)",46.9014
C:/Users/srbb21/AppData/Local/Temp/rx18_gr30001521653382.841.odb,RELAX,Increment    105: Step Time =    1.000,SHELL-1,2095,12.8062,-5.75,12.6467,ASSEMBLY_SHELL-1_ALLEL,TI,"shell < TI > < 5 section points > : SNEG, (fraction = -1.0)",73.676
C:/Users/srbb21/AppData/Local/Temp/rx18_gr30001521653382.841.odb,RELAX,Increment    105: Step Time =    1.000,SHELL-1,2096,12.8062,-5.25,12.6467,ASSEMBLY_SHELL-1_ALLEL,TI,"shell < TI > < 5 section points > : SPOS, (fraction = 1.0)",44.8494
C:/Users/srbb21/AppData/Local/Temp/rx18_gr30001521653382.841.odb,RELAX,Increment    105: Step Time =    1.000,SHELL-1,2096,12.8062,-5.25,12.6467,ASSEMBLY_SHELL-1_ALLEL,TI,"shell < TI > < 5 section points > : SNEG, (fraction = -1.0)",79.3934
C:/Users/srbb21/AppData/Local/Temp/rx18_gr30001521653382.841.odb,RELAX,Increment    105: Step Time =    1.000,SHELL-1,2097,12.8062,-4.75,12.6467,ASSEMBLY_SHELL-1_ALLEL,TI,"shell < TI > < 5 section points > : SPOS, (fraction = 1.0)",42.644
C:/Users/srbb21/AppData/Local/Temp/rx18_gr30001521653382.841.odb,RELAX,Increment    105: Step Time =    1.000,SHELL-1,2097,12.8062,-4.75,12.6467,ASSEMBLY_SHELL-1_ALLEL,TI,"shell < TI > < 5 section points > : SNEG, (fraction = -1.0)",83.4491
C:/Users/srbb21/AppData/Local/Temp/rx18_gr30001521653382.841.odb,RELAX,Increment    105: Step Time =    1.000,SHELL-1,2098,12.8062,-4.25,12.6467,ASSEMBLY_SHELL-1_ALLEL,TI,"shell < TI > < 5 section points > : SPOS, (fraction = 1.0)",40.4585
C:/Users/srbb21/AppData/Local/Temp/rx18_gr30001521653382.841.odb,RELAX,Increment    105: Step Time =    1.000,SHELL-1,2098,12.8062,-4.25,12.6467,ASSEMBLY_SHELL-1_ALLEL,TI,"shell < TI > < 5 section points > : SNEG, (fraction = -1.0)",86.1813
C:/Users/srbb21/AppData/Local/Temp/rx18_gr30001521653382.841.odb,RELAX,Increment    105: Step Time =    1.000,SHELL-1,2099,12.8062,-3.75,12.6467,ASSEMBLY_SHELL-1_ALLEL,TI,"shell < TI > < 5 section points > : SNEG, (fraction = -1.0)",87.9065
C:/Users/srbb21/AppData/Local/Temp/rx18_gr30001521653382.841.odb,RELAX,Increment    105: Step Time =    1.000,SHELL-1,2099,12.8062,-3.75,12.6467,ASSEMBLY_SHELL-1_ALLEL,TI,"shell < TI > < 5 section points > : SPOS, (fraction = 1.0)",38.4124
C:/Users/srbb21/AppData/Local/Temp/rx18_gr30001521653382.841.odb,RELAX,Increment    105: Step Time =    1.000,SHELL-1,2100,12.8062,-3.25,12.6467,ASSEMBLY_SHELL-1_ALLEL,TI,"shell < TI > < 5 section points > : SPOS, (fraction = 1.0)",36.5815
C:/Users/srbb21/AppData/Local/Temp/rx18_gr30001521653382.841.odb,RELAX,Increment    105: Step Time =    1.000,SHELL-1,2100,12.8062,-3.25,12.6467,ASSEMBLY_SHELL-1_ALLEL,TI,"shell < TI > < 5 section points > : SNEG, (fraction = -1.0)",88.906
C:/Users/srbb21/AppData/Local/Temp/rx18_gr30001521653382.841.odb,RELAX,Increment    105: Step Time =    1.000,SHELL-1,2101,12.8062,-2.75,12.6467,ASSEMBLY_SHELL-1_ALLEL,TI,"shell < TI > < 5 section points > : SPOS, (fraction = 1.0)",35.0147
C:/Users/srbb21/AppData/Local/Temp/rx18_gr30001521653382.841.odb,RELAX,Increment    105: Step Time =    1.000,SHELL-1,2101,12.8062,-2.75,12.6467,ASSEMBLY_SHELL-1_ALLEL,TI,"shell < TI > < 5 section points > : SNEG, (fraction = -1.0)",89.4042
C:/Users/srbb21/AppData/Local/Temp/rx18_gr30001521653382.841.odb,RELAX,Increment    105: Step Time =    1.000,SHELL-1,2102,12.8062,-2.25,12.6467,ASSEMBLY_SHELL-1_ALLEL,TI,"shell < TI > < 5 section points > : SPOS, (fraction = 1.0)",33.7289
C:/Users/srbb21/AppData/Local/Temp/rx18_gr30001521653382.841.odb,RELAX,Increment    105: Step Time =    1.000,SHELL-1,2102,12.8062,-2.25,12.6467,ASSEMBLY_SHELL-1_ALLEL,TI,"shell < TI > < 5 section points > : SNEG, (fraction = -1.0)",89.5833
C:/Users/srbb21/AppData/Local/Temp/rx18_gr30001521653382.841.odb,RELAX,Increment    105: Step Time =    1.000,SHELL-1,2103,12.8062,-1.75,12.6467,ASSEMBLY_SHELL-1_ALLEL,TI,"shell < TI > < 5 section points > : SNEG, (fraction = -1.0)",89.579
C:/Users/srbb21/AppData/Local/Temp/rx18_gr30001521653382.841.odb,RELAX,Increment    105: Step Time =    1.000,SHELL-1,2103,12.8062,-1.75,12.6467,ASSEMBLY_SHELL-1_ALLEL,TI,"shell < TI > < 5 section points > : SPOS, (fraction = 1.0)",32.7277
C:/Users/srbb21/AppData/Local/Temp/rx18_gr30001521653382.841.odb,RELAX,Increment    105: Step Time =    1.000,SHELL-1,2104,12.8062,-1.25,12.6467,ASSEMBLY_SHELL-1_ALLEL,TI,"shell < TI > < 5 section points > : SPOS, (fraction = 1.0)",31.9977
C:/Users/srbb21/AppData/Local/Temp/rx18_gr30001521653382.841.odb,RELAX,Increment    105: Step Time =    1.000,SHELL-1,2104,12.8062,-1.25,12.6467,ASSEMBLY_SHELL-1_ALLEL,TI,"shell < TI > < 5 section points > : SNEG, (fraction = -1.0)",89.4948
C:/Users/srbb21/AppData/Local/Temp/rx18_gr30001521653382.841.odb,RELAX,Increment    105: Step Time =    1.000,SHELL-1,2105,12.8062,-0.75,12.6467,ASSEMBLY_SHELL-1_ALLEL,TI,"shell < TI > < 5 section points > : SPOS, (fraction = 1.0)",31.5243
C:/Users/srbb21/AppData/Local/Temp/rx18_gr30001521653382.841.odb,RELAX,Increment    105: Step Time =    1.000,SHELL-1,2105,12.8062,-0.75,12.6467,ASSEMBLY_SHELL-1_ALLEL,TI,"shell < TI > < 5 section points > : SNEG, (fraction = -1.0)",89.4008
C:/Users/srbb21/AppData/Local/Temp/rx18_gr30001521653382.841.odb,RELAX,Increment    105: Step Time =    1.000,SHELL-1,2106,12.8062,-0.25,12.6467,ASSEMBLY_SHELL-1_ALLEL,TI,"shell < TI > < 5 section points > : SPOS, (fraction = 1.0)",31.2917
C:/Users/srbb21/AppData/Local/Temp/rx18_gr30001521653382.841.odb,RELAX,Increment    105: Step Time =    1.000,SHELL-1,2106,12.8062,-0.25,12.6467,ASSEMBLY_SHELL-1_ALLEL,TI,"shell < TI > < 5 section points > : SNEG, (fraction = -1.0)",89.343
C:/Users/srbb21/AppData/Local/Temp/rx18_gr30001521653382.841.odb,RELAX,Increment    105: Step Time =    1.000,SHELL-1,2107,12.8062,0.25,12.6467,ASSEMBLY_SHELL-1_ALLEL,TI,"shell < TI > < 5 section points > : SNEG, (fraction = -1.0)",89.343
C:/Users/srbb21/AppData/Local/Temp/rx18_gr30001521653382.841.odb,RELAX,Increment    105: Step Time =    1.000,SHELL-1,2107,12.8062,0.25,12.6467,ASSEMBLY_SHELL-1_ALLEL,TI,"shell < TI > < 5 section points > : SPOS, (fraction = 1.0)",31.2917
C:/Users/srbb21/AppData/Local/Temp/rx18_gr30001521653382.841.odb,RELAX,Increment    105: Step Time =    1.000,SHELL-1,2108,12.8062,0.75,12.6467,ASSEMBLY_SHELL-1_ALLEL,TI,"shell < TI > < 5 section points > : SPOS, (fraction = 1.0)",31.5243
C:/Users/srbb21/AppData/Local/Temp/rx18_gr30001521653382.841.odb,RELAX,Increment    105: Step Time =    1.000,SHELL-1,2108,12.8062,0.75,12.6467,ASSEMBLY_SHELL-1_ALLEL,TI,"shell < TI > < 5 section points > : SNEG, (fraction = -1.0)",89.4008
C:/Users/srbb21/AppData/Local/Temp/rx18_gr30001521653382.841.odb,RELAX,Increment    105: Step Time =    1.000,SHELL-1,2109,12.8062,1.25,12.6467,ASSEMBLY_SHELL-1_ALLEL,TI,"shell < TI > < 5 section points > : SPOS, (fraction = 1.0)",31.9977
C:/Users/srbb21/AppData/Local/Temp/rx18_gr30001521653382.841.odb,RELAX,Increment    105: Step Time =    1.000,SHELL-1,2109,12.8062,1.25,12.6467,ASSEMBLY_SHELL-1_ALLEL,TI,"shell < TI > < 5 section points > : SNEG, (fraction = -1.0)",89.4948
C:/Users/srbb21/AppData/Local/Temp/rx18_gr30001521653382.841.odb,RELAX,Increment    105: Step Time =    1.000,SHELL-1,2110,12.8062,1.75,12.6467,ASSEMBLY_SHELL-1_ALLEL,TI,"shell < TI > < 5 section points > : SPOS, (fraction = 1.0)",32.7277
C:/Users/srbb21/AppData/Local/Temp/rx18_gr30001521653382.841.odb,RELAX,Increment    105: Step Time =    1.000,SHELL-1,2110,12.8062,1.75,12.6467,ASSEMBLY_SHELL-1_ALLEL,TI,"shell < TI > < 5 section points > : SNEG, (fraction = -1.0)",89.579
C:/Users/srbb21/AppData/Local/Temp/rx18_gr30001521653382.841.odb,RELAX,Increment    105: Step Time =    1.000,SHELL-1,2111,12.8062,2.25,12.6467,ASSEMBLY_SHELL-1_ALLEL,TI,"shell < TI > < 5 section points > : SNEG, (fraction = -1.0)",89.5833
C:/Users/srbb21/AppData/Local/Temp/rx18_gr30001521653382.841.odb,RELAX,Increment    105: Step Time =    1.000,SHELL-1,2111,12.8062,2.25,12.6467,ASSEMBLY_SHELL-1_ALLEL,TI,"shell < TI > < 5 section points > : SPOS, (fraction = 1.0)",33.7289
C:/Users/srbb21/AppData/Local/Temp/rx18_gr30001521653382.841.odb,RELAX,Increment    105: Step Time =    1.000,SHELL-1,2112,12.8062,2.75,12.6467,ASSEMBLY_SHELL-1_ALLEL,TI,"shell < TI > < 5 section points > : SPOS, (fraction = 1.0)",35.0147
C:/Users/srbb21/AppData/Local/Temp/rx18_gr30001521653382.841.odb,RELAX,Increment    105: Step Time =    1.000,SHELL-1,2112,12.8062,2.75,12.6467,ASSEMBLY_SHELL-1_ALLEL,TI,"shell < TI > < 5 section points > : SNEG, (fraction = -1.0)",89.4042
C:/Users/srbb21/AppData/Local/Temp/rx18_gr30001521653382.841.odb,RELAX,Increment    105: Step Time =    1.000,SHELL-1,2113,12.8062,3.25,12.6467,ASSEMBLY_SHELL-1_ALLEL,TI,"shell < TI > < 5 section points > : SPOS, (fraction = 1.0)",36.5815
C:/Users/srbb21/AppData/Local/Temp/rx18_gr30001521653382.841.odb,RELAX,Increment    105: Step Time =    1.000,SHELL-1,2113,12.8062,3.25,12.6467,ASSEMBLY_SHELL-1_ALLEL,TI,"shell < TI > < 5 section points > : SNEG, (fraction = -1.0)",88.906
C:/Users/srbb21/AppData/Local/Temp/rx18_gr30001521653382.841.odb,RELAX,Increment    105: Step Time =    1.000,SHELL-1,2114,12.8062,3.75,12.6467,ASSEMBLY_SHELL-1_ALLEL,TI,"shell < TI > < 5 section points > : SPOS, (fraction = 1.0)",38.4124
C:/Users/srbb21/AppData/Local/Temp/rx18_gr30001521653382.841.odb,RELAX,Increment    105: Step Time =    1.000,SHELL-1,2114,12.8062,3.75,12.6467,ASSEMBLY_SHELL-1_ALLEL,TI,"shell < TI > < 5 section points > : SNEG, (fraction = -1.0)",87.9065
C:/Users/srbb21/AppData/Local/Temp/rx18_gr30001521653382.841.odb,RELAX,Increment    105: Step Time =    1.000,SHELL-1,2115,12.8062,4.25,12.6467,ASSEMBLY_SHELL-1_ALLEL,TI,"shell < TI > < 5 section points > : SPOS, (fraction = 1.0)",40.4585
C:/Users/srbb21/AppData/Local/Temp/rx18_gr30001521653382.841.odb,RELAX,Increment    105: Step Time =    1.000,SHELL-1,2115,12.8062,4.25,12.6467,ASSEMBLY_SHELL-1_ALLEL,TI,"shell < TI > < 5 section points > : SNEG, (fraction = -1.0)",86.1813
C:/Users/srbb21/AppData/Local/Temp/rx18_gr30001521653382.841.odb,RELAX,Increment    105: Step Time =    1.000,SHELL-1,2116,12.8062,4.75,12.6467,ASSEMBLY_SHELL-1_ALLEL,TI,"shell < TI > < 5 section points > : SNEG, (fraction = -1.0)",83.4491
C:/Users/srbb21/AppData/Local/Temp/rx18_gr30001521653382.841.odb,RELAX,Increment    105: Step Time =    1.000,SHELL-1,2116,12.8062,4.75,12.6467,ASSEMBLY_SHELL-1_ALLEL,TI,"shell < TI > < 5 section points > : SPOS, (fraction = 1.0)",42.644
C:/Users/srbb21/AppData/Local/Temp/rx18_gr30001521653382.841.odb,RELAX,Increment    105: Step Time =    1.000,SHELL-1,2117,12.8062,5.25,12.6467,ASSEMBLY_SHELL-1_ALLEL,TI,"shell < TI > < 5 section points > : SPOS, (fraction = 1.0)",44.8494
C:/Users/srbb21/AppData/Local/Temp/rx18_gr30001521653382.841.odb,RELAX,Increment    105: Step Time =    1.000,SHELL-1,2117,12.8062,5.25,12.6467,ASSEMBLY_SHELL-1_ALLEL,TI,"shell < TI > < 5 section points > : SNEG, (fraction = -1.0)",79.3934
C:/Users/srbb21/AppData/Local/Temp/rx18_gr30001521653382.841.odb,RELAX,Increment    105: Step Time =    1.000,SHELL-1,2118,12.8062,5.75,12.6467,ASSEMBLY_SHELL-1_ALLEL,TI,"shell < TI > < 5 section points > : SPOS, (fraction = 1.0)",46.9014
C:/Users/srbb21/AppData/Local/Temp/rx18_gr30001521653382.841.odb,RELAX,Increment    105: Step Time =    1.000,SHELL-1,2118,12.8062,5.75,12.6467,ASSEMBLY_SHELL-1_ALLEL,TI,"shell < TI > < 5 section points > : SNEG, (fraction = -1.0)",73.676
C:/Users/srbb21/AppData/Local/Temp/rx18_gr30001521653382.841.odb,RELAX,Increment    105: Step Time =    1.000,SHELL-1,2119,12.8062,6.25,12.6467,ASSEMBLY_SHELL-1_ALLEL,TI,"shell < TI > < 5 section points > : SPOS, (fraction = 1.0)",48.5733
C:/Users/srbb21/AppData/Local/Temp/rx18_gr30001521653382.841.odb,RELAX,Increment    105: Step Time =    1.000,SHELL-1,2119,12.8062,6.25,12.6467,ASSEMBLY_SHELL-1_ALLEL,TI,"shell < TI > < 5 section points > : SNEG, (fraction = -1.0)",66.0372
C:/Users/srbb21/AppData/Local/Temp/rx18_gr30001521653382.841.odb,RELAX,Increment    105: Step Time =    1.000,SHELL-1,2120,12.8062,6.75,12.6467,ASSEMBLY_SHELL-1_ALLEL,TI,"shell < TI > < 5 section points > : SNEG, (fraction = -1.0)",56.4682
C:/Users/srbb21/AppData/Local/Temp/rx18_gr30001521653382.841.odb,RELAX,Increment    105: Step Time =    1.000,SHELL-1,2120,12.8062,6.75,12.6467,ASSEMBLY_SHELL-1_ALLEL,TI,"shell < TI > < 5 section points > : SPOS, (fraction = 1.0)",49.4894
C:/Users/srbb21/AppData/Local/Temp/rx18_gr30001521653382.841.odb,RELAX,Increment    105: Step Time =    1.000,SHELL-1,2121,12.8062,7.25,12.6467,ASSEMBLY_SHELL-1_ALLEL,TI,"shell < TI > < 5 section points > : SPOS, (fraction = 1.0)",49.206
C:/Users/srbb21/AppData/Local/Temp/rx18_gr30001521653382.841.odb,RELAX,Increment    105: Step Time =    1.000,SHELL-1,2121,12.8062,7.25,12.6467,ASSEMBLY_SHELL-1_ALLEL,TI,"shell < TI > < 5 section points > : SNEG, (fraction = -1.0)",45.6006
C:/Users/srbb21/AppData/Local/Temp/rx18_gr30001521653382.841.odb,RELAX,Increment    105: Step Time =    1.000,SHELL-1,2122,12.8062,7.75,12.6467,ASSEMBLY_SHELL-1_ALLEL,TI,"shell < TI > < 5 section points > : SPOS, (fraction = 1.0)",46.7442
C:/Users/srbb21/AppData/Local/Temp/rx18_gr30001521653382.841.odb,RELAX,Increment    105: Step Time =    1.000,SHELL-1,2122,12.8062,7.75,12.6467,ASSEMBLY_SHELL-1_ALLEL,TI,"shell < TI > < 5 section points > : SNEG, (fraction = -1.0)",35.1848
C:/Users/srbb21/AppData/Local/Temp/rx18_gr30001521653382.841.odb,RELAX,Increment    105: Step Time =    1.000,SHELL-1,2123,12.8062,8.25,12.6467,ASSEMBLY_SHELL-1_ALLEL,TI,"shell < TI > < 5 section points > : SPOS, (fraction = 1.0)",41.4097
C:/Users/srbb21/AppData/Local/Temp/rx18_gr30001521653382.841.odb,RELAX,Increment    105: Step Time =    1.000,SHELL-1,2123,12.8062,8.25,12.6467,ASSEMBLY_SHELL-1_ALLEL,TI,"shell < TI > < 5 section points > : SNEG, (fraction = -1.0)",26.5936
C:/Users/srbb21/AppData/Local/Temp/rx18_gr30001521653382.841.odb,RELAX,Increment    105: Step Time =    1.000,SHELL-1,2124,12.8062,8.75,12.6467,ASSEMBLY_SHELL-1_ALLEL,TI,"shell < TI > < 5 section points > : SNEG, (fraction = -1.0)",14.277
C:/Users/srbb21/AppData/Local/Temp/rx18_gr30001521653382.841.odb,RELAX,Increment    105: Step Time =    1.000,SHELL-1,2124,12.8062,8.75,12.6467,ASSEMBLY_SHELL-1_ALLEL,TI,"shell < TI > < 5 section points > : SPOS, (fraction = 1.0)",36.8137
C:/Users/srbb21/AppData/Local/Temp/rx18_gr30001521653382.841.odb,RELAX,Increment    105: Step Time =    1.000,SHELL-1,2125,13.1525,-8.75,12.2861,ASSEMBLY_SHELL-1_ALLEL,TI,"shell < TI > < 5 section points > : SPOS, (fraction = 1.0)",12.8883
C:/Users/srbb21/AppData/Local/Temp/rx18_gr30001521653382.841.odb,RELAX,Increment    105: Step Time =    1.000,SHELL-1,2125,13.1525,-8.75,12.2861,ASSEMBLY_SHELL-1_ALLEL,TI,"shell < TI > < 5 section points > : SNEG, (fraction = -1.0)",7.38582
C:/Users/srbb21/AppData/Local/Temp/rx18_gr30001521653382.841.odb,RELAX,Increment    105: Step Time =    1.000,SHELL-1,2126,13.1525,-8.25,12.2861,ASSEMBLY_SHELL-1_ALLEL,TI,"shell < TI > < 5 section points > : SPOS, (fraction = 1.0)",22.4207
C:/Users/srbb21/AppData/Local/Temp/rx18_gr30001521653382.841.odb,RELAX,Increment    105: Step Time =    1.000,SHELL-1,2126,13.1525,-8.25,12.2861,ASSEMBLY_SHELL-1_ALLEL,TI,"shell < TI > < 5 section points > : SNEG, (fraction = -1.0)",22.0362
C:/Users/srbb21/AppData/Local/Temp/rx18_gr30001521653382.841.odb,RELAX,Increment    105: Step Time =    1.000,SHELL-1,2127,13.1525,-7.75,12.2861,ASSEMBLY_SHELL-1_ALLEL,TI,"shell < TI > < 5 section points > : SPOS, (fraction = 1.0)",27.8248
C:/Users/srbb21/AppData/Local/Temp/rx18_gr30001521653382.841.odb,RELAX,Increment    105: Step Time =    1.000,SHELL-1,2127,13.1525,-7.75,12.2861,ASSEMBLY_SHELL-1_ALLEL,TI,"shell < TI > < 5 section points > : SNEG, (fraction = -1.0)",43.0435
C:/Users/srbb21/AppData/Local/Temp/rx18_gr30001521653382.841.odb,RELAX,Increment    105: Step Time =    1.000,SHELL-1,2128,13.1525,-7.25,12.2861,ASSEMBLY_SHELL-1_ALLEL,TI,"shell < TI > < 5 section points > : SNEG, (fraction = -1.0)",63.0508
C:/Users/srbb21/AppData/Local/Temp/rx18_gr30001521653382.841.odb,RELAX,Increment    105: Step Time =    1.000,SHELL-1,2128,13.1525,-7.25,12.2861,ASSEMBLY_SHELL-1_ALLEL,TI,"shell < TI > < 5 section points > : SPOS, (fraction = 1.0)",29.9279
C:/Users/srbb21/AppData/Local/Temp/rx18_gr30001521653382.841.odb,RELAX,Increment    105: Step Time =    1.000,SHELL-1,2129,13.1525,-6.75,12.2861,ASSEMBLY_SHELL-1_ALLEL,TI,"shell < TI > < 5 section points > : SPOS, (fraction = 1.0)",30.1366
C:/Users/srbb21/AppData/Local/Temp/rx18_gr30001521653382.841.odb,RELAX,Increment    105: Step Time =    1.000,SHELL-1,2129,13.1525,-6.75,12.2861,ASSEMBLY_SHELL-1_ALLEL,TI,"shell < TI > < 5 section points > : SNEG, (fraction = -1.0)",79.6706
C:/Users/srbb21/AppData/Local/Temp/rx18_gr30001521653382.841.odb,RELAX,Increment    105: Step Time =    1.000,SHELL-1,2130,13.1525,-6.25,12.2861,ASSEMBLY_SHELL-1_ALLEL,TI,"shell < TI > < 5 section points > : SPOS, (fraction = 1.0)",29.1693
C:/Users/srbb21/AppData/Local/Temp/rx18_gr30001521653382.841.odb,RELAX,Increment    105: Step Time =    1.000,SHELL-1,2130,13.1525,-6.25,12.2861,ASSEMBLY_SHELL-1_ALLEL,TI,"shell < TI > < 5 section points > : SNEG, (fraction = -1.0)",92.438
C:/Users/srbb21/AppData/Local/Temp/rx18_gr30001521653382.841.odb,RELAX,Increment    105: Step Time =    1.000,SHELL-1,2131,13.1525,-5.75,12.2861,ASSEMBLY_SHELL-1_ALLEL,TI,"shell < TI > < 5 section points > : SPOS, (fraction = 1.0)",27.516
C:/Users/srbb21/AppData/Local/Temp/rx18_gr30001521653382.841.odb,RELAX,Increment    105: Step Time =    1.000,SHELL-1,2131,13.1525,-5.75,12.2861,ASSEMBLY_SHELL-1_ALLEL,TI,"shell < TI > < 5 section points > : SNEG, (fraction = -1.0)",101.792
C:/Users/srbb21/AppData/Local/Temp/rx18_gr30001521653382.841.odb,RELAX,Increment    105: Step Time =    1.000,SHELL-1,2132,13.1525,-5.25,12.2861,ASSEMBLY_SHELL-1_ALLEL,TI,"shell < TI > < 5 section points > : SPOS, (fraction = 1.0)",25.4482
C:/Users/srbb21/AppData/Local/Temp/rx18_gr30001521653382.841.odb,RELAX,Increment    105: Step Time =    1.000,SHELL-1,2132,13.1525,-5.25,12.2861,ASSEMBLY_SHELL-1_ALLEL,TI,"shell < TI > < 5 section points > : SNEG, (fraction = -1.0)",108.347
C:/Users/srbb21/AppData/Local/Temp/rx18_gr30001521653382.841.odb,RELAX,Increment    105: Step Time =    1.000,SHELL-1,2133,13.1525,-4.75,12.2861,ASSEMBLY_SHELL-1_ALLEL,TI,"shell < TI > < 5 section points > : SNEG, (fraction = -1.0)",112.754
C:/Users/srbb21/AppData/Local/Temp/rx18_gr30001521653382.841.odb,RELAX,Increment    105: Step Time =    1.000,SHELL-1,2133,13.1525,-4.75,12.2861,ASSEMBLY_SHELL-1_ALLEL,TI,"shell < TI > < 5 section points > : SPOS, (fraction = 1.0)",23.1435
C:/Users/srbb21/AppData/Local/Temp/rx18_gr30001521653382.841.odb,RELAX,Increment    105: Step Time =    1.000,SHELL-1,2134,13.1525,-4.25,12.2861,ASSEMBLY_SHELL-1_ALLEL,TI,"shell < TI > < 5 section points > : SPOS, (fraction = 1.0)",20.7124
C:/Users/srbb21/AppData/Local/Temp/rx18_gr30001521653382.841.odb,RELAX,Increment    105: Step Time =    1.000,SHELL-1,2134,13.1525,-4.25,12.2861,ASSEMBLY_SHELL-1_ALLEL,TI,"shell < TI > < 5 section points > : SNEG, (fraction = -1.0)",115.554
C:/Users/srbb21/AppData/Local/Temp/rx18_gr30001521653382.841.odb,RELAX,Increment    105: Step Time =    1.000,SHELL-1,2135,13.1525,-3.75,12.2861,ASSEMBLY_SHELL-1_ALLEL,TI,"shell < TI > < 5 section points > : SPOS, (fraction = 1.0)",18.227
C:/Users/srbb21/AppData/Local/Temp/rx18_gr30001521653382.841.odb,RELAX,Increment    105: Step Time =    1.000,SHELL-1,2135,13.1525,-3.75,12.2861,ASSEMBLY_SHELL-1_ALLEL,TI,"shell < TI > < 5 section points > : SNEG, (fraction = -1.0)",117.204
C:/Users/srbb21/AppData/Local/Temp/rx18_gr30001521653382.841.odb,RELAX,Increment    105: Step Time =    1.000,SHELL-1,2136,13.1525,-3.25,12.2861,ASSEMBLY_SHELL-1_ALLEL,TI,"shell < TI > < 5 section points > : SPOS, (fraction = 1.0)",15.7353
C:/Users/srbb21/AppData/Local/Temp/rx18_gr30001521653382.841.odb,RELAX,Increment    105: Step Time =    1.000,SHELL-1,2136,13.1525,-3.25,12.2861,ASSEMBLY_SHELL-1_ALLEL,TI,"shell < TI > < 5 section points > : SNEG, (fraction = -1.0)",118.05
C:/Users/srbb21/AppData/Local/Temp/rx18_gr30001521653382.841.odb,RELAX,Increment    105: Step Time =    1.000,SHELL-1,2137,13.1525,-2.75,12.2861,ASSEMBLY_SHELL-1_ALLEL,TI,"shell < TI > < 5 section points > : SNEG, (fraction = -1.0)",118.371
C:/Users/srbb21/AppData/Local/Temp/rx18_gr30001521653382.841.odb,RELAX,Increment    105: Step Time =    1.000,SHELL-1,2137,13.1525,-2.75,12.2861,ASSEMBLY_SHELL-1_ALLEL,TI,"shell < TI > < 5 section points > : SPOS, (fraction = 1.0)",13.2677
C:/Users/srbb21/AppData/Local/Temp/rx18_gr30001521653382.841.odb,RELAX,Increment    105: Step Time =    1.000,SHELL-1,2138,13.1525,-2.25,12.2861,ASSEMBLY_SHELL-1_ALLEL,TI,"shell < TI > < 5 section points > : SPOS, (fraction = 1.0)",10.8459
C:/Users/srbb21/AppData/Local/Temp/rx18_gr30001521653382.841.odb,RELAX,Increment    105: Step Time =    1.000,SHELL-1,2138,13.1525,-2.25,12.2861,ASSEMBLY_SHELL-1_ALLEL,TI,"shell < TI > < 5 section points > : SNEG, (fraction = -1.0)",118.37
C:/Users/srbb21/AppData/Local/Temp/rx18_gr30001521653382.841.odb,RELAX,Increment    105: Step Time =    1.000,SHELL-1,2139,13.1525,-1.75,12.2861,ASSEMBLY_SHELL-1_ALLEL,TI,"shell < TI > < 5 section points > : SPOS, (fraction = 1.0)",8.48521
C:/Users/srbb21/AppData/Local/Temp/rx18_gr30001521653382.841.odb,RELAX,Increment    105: Step Time =    1.000,SHELL-1,2139,13.1525,-1.75,12.2861,ASSEMBLY_SHELL-1_ALLEL,TI,"shell < TI > < 5 section points > : SNEG, (fraction = -1.0)",118.208
C:/Users/srbb21/AppData/Local/Temp/rx18_gr30001521653382.841.odb,RELAX,Increment    105: Step Time =    1.000,SHELL-1,2140,13.1525,-1.25,12.2861,ASSEMBLY_SHELL-1_ALLEL,TI,"shell < TI > < 5 section points > : SPOS, (fraction = 1.0)",6.20881
C:/Users/srbb21/AppData/Local/Temp/rx18_gr30001521653382.841.odb,RELAX,Increment    105: Step Time =    1.000,SHELL-1,2140,13.1525,-1.25,12.2861,ASSEMBLY_SHELL-1_ALLEL,TI,"shell < TI > < 5 section points > : SNEG, (fraction = -1.0)",117.994
C:/Users/srbb21/AppData/Local/Temp/rx18_gr30001521653382.841.odb,RELAX,Increment    105: Step Time =    1.000,SHELL-1,2141,13.1525,-0.75,12.2861,ASSEMBLY_SHELL-1_ALLEL,TI,"shell < TI > < 5 section points > : SNEG, (fraction = -1.0)",117.81
C:/Users/srbb21/AppData/Local/Temp/rx18_gr30001521653382.841.odb,RELAX,Increment    105: Step Time =    1.000,SHELL-1,2141,13.1525,-0.75,12.2861,ASSEMBLY_SHELL-1_ALLEL,TI,"shell < TI > < 5 section points > : SPOS, (fraction = 1.0)",4.08189
C:/Users/srbb21/AppData/Local/Temp/rx18_gr30001521653382.841.odb,RELAX,Increment    105: Step Time =    1.000,SHELL-1,2142,13.1525,-0.25,12.2861,ASSEMBLY_SHELL-1_ALLEL,TI,"shell < TI > < 5 section points > : SPOS, (fraction = 1.0)",2.41946
C:/Users/srbb21/AppData/Local/Temp/rx18_gr30001521653382.841.odb,RELAX,Increment    105: Step Time =    1.000,SHELL-1,2142,13.1525,-0.25,12.2861,ASSEMBLY_SHELL-1_ALLEL,TI,"shell < TI > < 5 section points > : SNEG, (fraction = -1.0)",117.706
C:/Users/srbb21/AppData/Local/Temp/rx18_gr30001521653382.841.odb,RELAX,Increment    105: Step Time =    1.000,SHELL-1,2143,13.1525,0.25,12.2861,ASSEMBLY_SHELL-1_ALLEL,TI,"shell < TI > < 5 section points > : SPOS, (fraction = 1.0)",2.41946
C:/Users/srbb21/AppData/Local/Temp/rx18_gr30001521653382.841.odb,RELAX,Increment    105: Step Time =    1.000,SHELL-1,2143,13.1525,0.25,12.2861,ASSEMBLY_SHELL-1_ALLEL,TI,"shell < TI > < 5 section points > : SNEG, (fraction = -1.0)",117.706
C:/Users/srbb21/AppData/Local/Temp/rx18_gr30001521653382.841.odb,RELAX,Increment    105: Step Time =    1.000,SHELL-1,2144,13.1525,0.75,12.2861,ASSEMBLY_SHELL-1_ALLEL,TI,"shell < TI > < 5 section points > : SPOS, (fraction = 1.0)",4.08189
C:/Users/srbb21/AppData/Local/Temp/rx18_gr30001521653382.841.odb,RELAX,Increment    105: Step Time =    1.000,SHELL-1,2144,13.1525,0.75,12.2861,ASSEMBLY_SHELL-1_ALLEL,TI,"shell < TI > < 5 section points > : SNEG, (fraction = -1.0)",117.81
C:/Users/srbb21/AppData/Local/Temp/rx18_gr30001521653382.841.odb,RELAX,Increment    105: Step Time =    1.000,SHELL-1,2145,13.1525,1.25,12.2861,ASSEMBLY_SHELL-1_ALLEL,TI,"shell < TI > < 5 section points > : SNEG, (fraction = -1.0)",117.994
C:/Users/srbb21/AppData/Local/Temp/rx18_gr30001521653382.841.odb,RELAX,Increment    105: Step Time =    1.000,SHELL-1,2145,13.1525,1.25,12.2861,ASSEMBLY_SHELL-1_ALLEL,TI,"shell < TI > < 5 section points > : SPOS, (fraction = 1.0)",6.20881
C:/Users/srbb21/AppData/Local/Temp/rx18_gr30001521653382.841.odb,RELAX,Increment    105: Step Time =    1.000,SHELL-1,2146,13.1525,1.75,12.2861,ASSEMBLY_SHELL-1_ALLEL,TI,"shell < TI > < 5 section points > : SPOS, (fraction = 1.0)",8.48521
C:/Users/srbb21/AppData/Local/Temp/rx18_gr30001521653382.841.odb,RELAX,Increment    105: Step Time =    1.000,SHELL-1,2146,13.1525,1.75,12.2861,ASSEMBLY_SHELL-1_ALLEL,TI,"shell < TI > < 5 section points > : SNEG, (fraction = -1.0)",118.208
C:/Users/srbb21/AppData/Local/Temp/rx18_gr30001521653382.841.odb,RELAX,Increment    105: Step Time =    1.000,SHELL-1,2147,13.1525,2.25,12.2861,ASSEMBLY_SHELL-1_ALLEL,TI,"shell < TI > < 5 section points > : SPOS, (fraction = 1.0)",10.8459
C:/Users/srbb21/AppData/Local/Temp/rx18_gr30001521653382.841.odb,RELAX,Increment    105: Step Time =    1.000,SHELL-1,2147,13.1525,2.25,12.2861,ASSEMBLY_SHELL-1_ALLEL,TI,"shell < TI > < 5 section points > : SNEG, (fraction = -1.0)",118.37
C:/Users/srbb21/AppData/Local/Temp/rx18_gr30001521653382.841.odb,RELAX,Increment    105: Step Time =    1.000,SHELL-1,2148,13.1525,2.75,12.2861,ASSEMBLY_SHELL-1_ALLEL,TI,"shell < TI > < 5 section points > : SPOS, (fraction = 1.0)",13.2677
C:/Users/srbb21/AppData/Local/Temp/rx18_gr30001521653382.841.odb,RELAX,Increment    105: Step Time =    1.000,SHELL-1,2148,13.1525,2.75,12.2861,ASSEMBLY_SHELL-1_ALLEL,TI,"shell < TI > < 5 section points > : SNEG, (fraction = -1.0)",118.371
C:/Users/srbb21/AppData/Local/Temp/rx18_gr30001521653382.841.odb,RELAX,Increment    105: Step Time =    1.000,SHELL-1,2149,13.1525,3.25,12.2861,ASSEMBLY_SHELL-1_ALLEL,TI,"shell < TI > < 5 section points > : SNEG, (fraction = -1.0)",118.05
C:/Users/srbb21/AppData/Local/Temp/rx18_gr30001521653382.841.odb,RELAX,Increment    105: Step Time =    1.000,SHELL-1,2149,13.1525,3.25,12.2861,ASSEMBLY_SHELL-1_ALLEL,TI,"shell < TI > < 5 section points > : SPOS, (fraction = 1.0)",15.7353
C:/Users/srbb21/AppData/Local/Temp/rx18_gr30001521653382.841.odb,RELAX,Increment    105: Step Time =    1.000,SHELL-1,2150,13.1525,3.75,12.2861,ASSEMBLY_SHELL-1_ALLEL,TI,"shell < TI > < 5 section points > : SPOS, (fraction = 1.0)",18.227
C:/Users/srbb21/AppData/Local/Temp/rx18_gr30001521653382.841.odb,RELAX,Increment    105: Step Time =    1.000,SHELL-1,2150,13.1525,3.75,12.2861,ASSEMBLY_SHELL-1_ALLEL,TI,"shell < TI > < 5 section points > : SNEG, (fraction = -1.0)",117.204
C:/Users/srbb21/AppData/Local/Temp/rx18_gr30001521653382.841.odb,RELAX,Increment    105: Step Time =    1.000,SHELL-1,2151,13.1525,4.25,12.2861,ASSEMBLY_SHELL-1_ALLEL,TI,"shell < TI > < 5 section points > : SPOS, (fraction = 1.0)",20.7124
C:/Users/srbb21/AppData/Local/Temp/rx18_gr30001521653382.841.odb,RELAX,Increment    105: Step Time =    1.000,SHELL-1,2151,13.1525,4.25,12.2861,ASSEMBLY_SHELL-1_ALLEL,TI,"shell < TI > < 5 section points > : SNEG, (fraction = -1.0)",115.554
C:/Users/srbb21/AppData/Local/Temp/rx18_gr30001521653382.841.odb,RELAX,Increment    105: Step Time =    1.000,SHELL-1,2152,13.1525,4.75,12.2861,ASSEMBLY_SHELL-1_ALLEL,TI,"shell < TI > < 5 section points > : SPOS, (fraction = 1.0)",23.1435
C:/Users/srbb21/AppData/Local/Temp/rx18_gr30001521653382.841.odb,RELAX,Increment    105: Step Time =    1.000,SHELL-1,2152,13.1525,4.75,12.2861,ASSEMBLY_SHELL-1_ALLEL,TI,"shell < TI > < 5 section points > : SNEG, (fraction = -1.0)",112.754
C:/Users/srbb21/AppData/Local/Temp/rx18_gr30001521653382.841.odb,RELAX,Increment    105: Step Time =    1.000,SHELL-1,2153,13.1525,5.25,12.2861,ASSEMBLY_SHELL-1_ALLEL,TI,"shell < TI > < 5 section points > : SNEG, (fraction = -1.0)",108.347
C:/Users/srbb21/AppData/Local/Temp/rx18_gr30001521653382.841.odb,RELAX,Increment    105: Step Time =    1.000,SHELL-1,2153,13.1525,5.25,12.2861,ASSEMBLY_SHELL-1_ALLEL,TI,"shell < TI > < 5 section points > : SPOS, (fraction = 1.0)",25.4482
C:/Users/srbb21/AppData/Local/Temp/rx18_gr30001521653382.841.odb,RELAX,Increment    105: Step Time =    1.000,SHELL-1,2154,13.1525,5.75,12.2861,ASSEMBLY_SHELL-1_ALLEL,TI,"shell < TI > < 5 section points > : SPOS, (fraction = 1.0)",27.516
C:/Users/srbb21/AppData/Local/Temp/rx18_gr30001521653382.841.odb,RELAX,Increment    105: Step Time =    1.000,SHELL-1,2154,13.1525,5.75,12.2861,ASSEMBLY_SHELL-1_ALLEL,TI,"shell < TI > < 5 section points > : SNEG, (fraction = -1.0)",101.792
C:/Users/srbb21/AppData/Local/Temp/rx18_gr30001521653382.841.odb,RELAX,Increment    105: Step Time =    1.000,SHELL-1,2155,13.1525,6.25,12.2861,ASSEMBLY_SHELL-1_ALLEL,TI,"shell < TI > < 5 section points > : SPOS, (fraction = 1.0)",29.1693
C:/Users/srbb21/AppData/Local/Temp/rx18_gr30001521653382.841.odb,RELAX,Increment    105: Step Time =    1.000,SHELL-1,2155,13.1525,6.25,12.2861,ASSEMBLY_SHELL-1_ALLEL,TI,"shell < TI > < 5 section points > : SNEG, (fraction = -1.0)",92.438
C:/Users/srbb21/AppData/Local/Temp/rx18_gr30001521653382.841.odb,RELAX,Increment    105: Step Time =    1.000,SHELL-1,2156,13.1525,6.75,12.2861,ASSEMBLY_SHELL-1_ALLEL,TI,"shell < TI > < 5 section points > : SPOS, (fraction = 1.0)",30.1366
C:/Users/srbb21/AppData/Local/Temp/rx18_gr30001521653382.841.odb,RELAX,Increment    105: Step Time =    1.000,SHELL-1,2156,13.1525,6.75,12.2861,ASSEMBLY_SHELL-1_ALLEL,TI,"shell < TI > < 5 section points > : SNEG, (fraction = -1.0)",79.6706
C:/Users/srbb21/AppData/Local/Temp/rx18_gr30001521653382.841.odb,RELAX,Increment    105: Step Time =    1.000,SHELL-1,2157,13.1525,7.25,12.2861,ASSEMBLY_SHELL-1_ALLEL,TI,"shell < TI > < 5 section points > : SNEG, (fraction = -1.0)",63.0508
C:/Users/srbb21/AppData/Local/Temp/rx18_gr30001521653382.841.odb,RELAX,Increment    105: Step Time =    1.000,SHELL-1,2157,13.1525,7.25,12.2861,ASSEMBLY_SHELL-1_ALLEL,TI,"shell < TI > < 5 section points > : SPOS, (fraction = 1.0)",29.9279
C:/Users/srbb21/AppData/Local/Temp/rx18_gr30001521653382.841.odb,RELAX,Increment    105: Step Time =    1.000,SHELL-1,2158,13.1525,7.75,12.2861,ASSEMBLY_SHELL-1_ALLEL,TI,"shell < TI > < 5 section points > : SPOS, (fraction = 1.0)",27.8248
C:/Users/srbb21/AppData/Local/Temp/rx18_gr30001521653382.841.odb,RELAX,Increment    105: Step Time =    1.000,SHELL-1,2158,13.1525,7.75,12.2861,ASSEMBLY_SHELL-1_ALLEL,TI,"shell < TI > < 5 section points > : SNEG, (fraction = -1.0)",43.0435
C:/Users/srbb21/AppData/Local/Temp/rx18_gr30001521653382.841.odb,RELAX,Increment    105: Step Time =    1.000,SHELL-1,2159,13.1525,8.25,12.2861,ASSEMBLY_SHELL-1_ALLEL,TI,"shell < TI > < 5 section points > : SPOS, (fraction = 1.0)",22.4207
C:/Users/srbb21/AppData/Local/Temp/rx18_gr30001521653382.841.odb,RELAX,Increment    105: Step Time =    1.000,SHELL-1,2159,13.1525,8.25,12.2861,ASSEMBLY_SHELL-1_ALLEL,TI,"shell < TI > < 5 section points > : SNEG, (fraction = -1.0)",22.0362
C:/Users/srbb21/AppData/Local/Temp/rx18_gr30001521653382.841.odb,RELAX,Increment    105: Step Time =    1.000,SHELL-1,2160,13.1525,8.75,12.2861,ASSEMBLY_SHELL-1_ALLEL,TI,"shell < TI > < 5 section points > : SPOS, (fraction = 1.0)",12.8883
C:/Users/srbb21/AppData/Local/Temp/rx18_gr30001521653382.841.odb,RELAX,Increment    105: Step Time =    1.000,SHELL-1,2160,13.1525,8.75,12.2861,ASSEMBLY_SHELL-1_ALLEL,TI,"shell < TI > < 5 section points > : SNEG, (fraction = -1.0)",7.38582
